<?xml version="1.0"?>
<VTKFile type="UnstructuredGrid" version="0.1" byte_order="LittleEndian">
<UnstructuredGrid>
<Piece NumberOfPoints="3142" NumberOfCells="1054">
<Points>
<DataArray type="Float64" NumberOfComponents="3" format="ascii">
0.5 0.29999999999999999 0 0.54999999999999993 0.29999999999999999 0 0.54999999999999993 0.29999999999999999 0 0.59999999999999976 0.29999999999999999 0 0.59999999999999976 0.29999999999999999 0 0.6499999999999998 0.29999999999999999 0 0.6499999999999998 0.29999999999999999 0 0.69999999999999984 0.29999999999999999 0 0.69999999999999984 0.29999999999999999 0 0.74999999999999989 0.29999999999999999 0 0.74999999999999989 0.29999999999999999 0 0.79999999999999982 0.29999999999999999 0 0.79999999999999982 0.29999999999999999 0 0.84999999999999987 0.29999999999999999 0 0.84999999999999987 0.29999999999999999 0 0.89999999999999991 0.29999999999999999 0 0.89999999999999991 0.29999999999999999 0 0.94999999999999996 0.29999999999999999 0 0.94999999999999996 0.29999999999999999 0 1 0.29999999999999999 0 0.5 0.69999999999999996 0 0.54999999999999993 0.69999999999999996 0 0.54999999999999993 0.69999999999999996 0 0.59999999999999976 0.69999999999999996 0 0.59999999999999976 0.69999999999999996 0 0.6499999999999998 0.69999999999999996 0 0.6499999999999998 0.69999999999999996 0 0.69999999999999984 0.69999999999999996 0 0.69999999999999984 0.69999999999999996 0 0.74999999999999989 0.69999999999999996 0 0.74999999999999989 0.69999999999999996 0 0.79999999999999982 0.69999999999999996 0 0.79999999999999982 0.69999999999999996 0 0.84999999999999987 0.69999999999999996 0 0.84999999999999987 0.69999999999999996 0 0.89999999999999991 0.69999999999999996 0 0.89999999999999991 0.69999999999999996 0 0.94999999999999996 0.69999999999999996 0 0.94999999999999996 0.69999999999999996 0 1 0.69999999999999996 0 0.40076539126862748 0.34589349467022118 0 0.33277555741076909 0.36432196682010132 0 0.36575549820117997 0.31677992835137742 0 0.38083244760691543 0.38531983672244652 0 0.33277555741076909 0.36432196682010132 0 0.40076539126862748 0.34589349467022118 0 0.56836770495988642 0.3523062350852913 0 0.52289427570932567 0.3932284363388488 0 0.52752007115234678 0.33170632466418198 0 0.52752007115234678 0.33170632466418198 0 0.52289427570932567 0.3932284363388488 0 0.49077833859261139 0.35229981449445641 0 0.10000000000041601 1 0 0.053064897599294662 0.95186845269532028 0 0.10266856499240549 0.95548163909968886 0 0.099999999999814668 0 0 0.10266856499169109 0.044518360900210059 0 0.053064897599215843 0.048131547304697528 0 0.050000000000207989 1 0 0.053064897599294662 0.95186845269532028 0 0.10000000000041601 1 0 0.049999999999899652 0 0 0.099999999999814668 0 0 0.053064897599215843 0.048131547304697528 0 0.24999999999941211 0 0 0.29999999999926641 0 0 0.27499999999933927 0.060310814194988557 0 0.30000000000124832 1 0 0.25000000000104028 1 0 0.27609987656793722 0.94991445621608572 0 0.15720202157091859 0.60665697304410315 0 0.19914261668318661 0.62286739485272158 0 0.16500388252850301 0.66612077714085194 0 0.2236846579037573 0.67380363126050236 0 0.16500388252850301 0.66612077714085194 0 0.19914261668318661 0.62286739485272158 0 0.1247745017231483 0.27198077544791172 0 0.168349569971391 0.28054490850913671 0 0.14223753364722069 0.3341983344262433 0 0 0.75000000000034661 0 0 0.7000000000006934 0 0.049706944316475897 0.72477277076253799 0 0 0.30000000000124832 0 0 0.25000000000104028 0 0.049706944316556423 0.27522722923869108 0 0.59999999999999976 0.29999999999999999 0 0.61959173890754571 0.33832250091341232 0 0.56836770495988642 0.3523062350852913 0 0.5 0.69999999999999996 0 0.43323420005758778 0.6913544522562407 0 0.47913475093885149 0.66010775372412711 0 1 0.14999999999961891 0 0.95391631417672862 0.19584263333809451 0 0.93677536231883773 0.14999999999999089 0 1 0.84999999999982645 0 0.95391631417670719 0.89584263333814784 0 0.93677536231884972 0.85000000000000286 0 1 0.84999999999982645 0 0.93677536231884972 0.85000000000000286 0 0.95386563387742829 0.80414874155775029 0 1 0.14999999999961891 0 0.93677536231883773 0.14999999999999089 0 0.95386563387744361 0.1041487415577465 0 0.90416666666660628 0.9041666666666166 0 0.88088768115933802 0.84674609810493673 0 0.93677536231884972 0.85000000000000286 0 0.90416666666668166 0.20416666666667119 0 0.88088768115941807 0.14674609810479519 0 0.93677536231883773 0.14999999999999089 0 0.1247745017231483 0.27198077544791172 0 0.14223753364722069 0.3341983344262433 0 0.093851963071650835 0.30582068233324772 0 0.5 0.69999999999999996 0 0.45582236402875981 0.73896743678908217 0 0.43323420005758778 0.6913544522562407 0 0.55000000000173355 1 0 0.50000000000205869 1 0 0.52122150208832174 0.94089974453840242 0 0.49999999999869432 0 0 0.5499999999988151 0 0 0.52375890611712683 0.059318771819432882 0 0.54999999999999993 0.29999999999999999 0 0.59999999999999976 0.29999999999999999 0 0.56836770495988642 0.3523062350852913 0 0.50202631463681879 0.87892870825713787 0 0.44003836461056539 0.88093474584252718 0 0.45677673713123867 0.84253684404072415 0 0.33403534827021109 0.84402799729020661 0 0.35864759629805099 0.87963482415279515 0 0.30864387279288652 0.89906554525974958 0 0.53245488764484505 0.55078124999999989 0 0.47793794143994173 0.52940715638744962 0 0.53330375813596242 0.50827942741749099 0 0.82709327591102189 0.14937141670914489 0 0.81283102246527783 0.1881007222486438 0 0.77144070960558853 0.14311854477243749 0 0.82709327591091286 0.84937141670920724 0 0.81159157511211755 0.88795995483179491 0 0.76901770135486491 0.84293557325473656 0 0.77144070960558853 0.14311854477243749 0 0.81283102246527783 0.1881007222486438 0 0.76587607630038135 0.18880039518954719 0 0.76901770135486491 0.84293557325473656 0 0.81159157511211755 0.88795995483179491 0 0.76891166905518427 0.88835469571185499 0 0.33403534827021109 0.84402799729020661 0 0.30864387279288652 0.89906554525974958 0 0.29209212897034281 0.84715728365233667 0 0.57412547362576272 0.58273804879550706 0 0.5166924242153631 0.59825134841919447 0 0.53245488764484505 0.55078124999999989 0 0.50202631463681879 0.87892870825713787 0 0.47401147028110507 0.91529957330468115 0 0.44003836461056539 0.88093474584252718 0 0.5 0.69999999999999996 0 0.54999999999999993 0.69999999999999996 0 0.55363780716230748 0.74348740161571747 0 1 0.34999999999993492 0 0.95871855522754235 0.40006508612975411 0 0.95780851984364423 0.34215720972155339 0 1 0.64999999999986979 0 0.9578014258160763 0.65787212321113708 0 0.95867599106212187 0.60011091146651041 0 0.46666084890304671 0.57634471035397938 0 0.47793794143994173 0.52940715638744962 0 0.53245488764484505 0.55078124999999989 0 0.94999999999999996 0.29999999999999999 0 0.89898474358614167 0.25391965591104898 0 0.94399509803921056 0.24399509803922639 0 0.94999999999979179 1 0 0.89898474358632463 0.95391965591118966 0 0.94399509803919068 0.9439950980391687 0 0 0.65000000000104008 0 0.050069554451969707 0.61308520079857043 0 0.046634677244967337 0.671418230738282 0 0 0.35000000000145642 0 0.046389130980076937 0.32668781832131749 0 0.050583896093752537 0.38543522283434112 0 0.50202631463681879 0.87892870825713787 0 0.50627822638148745 0.8263979829520941 0 0.55899371797446828 0.85003102233514438 0 0.54782696902220018 0.79245182748204157 0 0.55899371797446828 0.85003102233514438 0 0.50627822638148745 0.8263979829520941 0 0.50945740445113552 0.75476055527778108 0 0.5 0.69999999999999996 0 0.55363780716230748 0.74348740161571747 0 0.84999999999965292 1 0 0.85170973911348691 0.93569607295217616 0 0.89898474358632463 0.95391965591118966 0 0.84999999999999987 0.29999999999999999 0 0.8517097391133297 0.2356960729520409 0 0.89898474358614167 0.25391965591104898 0 0.86956835336234861 0.571283299838105 0 0.82862096804812391 0.55037090955459045 0 0.86907294890112186 0.52008116128001669 0 0.49102375406324739 0.49123754822244059 0 0.53330375813596242 0.50827942741749099 0 0.47793794143994173 0.52940715638744962 0 0.57611405284611883 0.50165903596042916 0 0.61547661924074692 0.48539576058873962 0 0.62042975506801734 0.54295974692364424 0 0.71406021706547751 0.63292083137662503 0 0.67529834988829951 0.61613270668143583 0 0.71809016091162536 0.58185040402320831 0 0.65000000000104008 1 0 0.62065498684670595 0.95224934003983619 0 0.68015064798562208 0.95924320340003011 0 0.84999999999960507 0 0 0.899991664607802 0.045289349238254978 0 0.85491058998398861 0.060047533455626502 0 0.84999999999999987 0.69999999999999996 0 0.89999166460796554 0.74528934923809909 0 0.85491058998424563 0.76004753345552634 0 0.89999999999999991 0.29999999999999999 0 0.89898474358614167 0.25391965591104898 0 0.94999999999999996 0.29999999999999999 0 0.94999999999979179 1 0 0.89999999999958358 1 0 0.89898474358632463 0.95391965591118966 0 0.86411095495256451 0.42388805655111889 0 0.81308179852519835 0.39754945808726527 0 0.86844634540301924 0.38530937474099819 0 0.5 0.29999999999999999 0 0.49695729691142171 0.25014895411178018 0 0.54248833945060504 0.2520322959927106 0 0.86411095495256451 0.42388805655111889 0 0.81973119833356312 0.43505687159469048 0 0.81308179852519835 0.39754945808726527 0 0.67323294229744413 0.57556450033612505 0 0.71809016091162536 0.58185040402320831 0 0.67529834988829951 0.61613270668143583 0 0.6236733212988993 0.14864538214901801 0 0.68391457121233579 0.14440470121196541 0 0.64011864159029941 0.18789607982138171 0 0 0.050000000000207989 0 0.053064897599215843 0.048131547304697528 0 0.044310582753132287 0.101412518374475 0 0 0.94999999999979179 0 0.0443105827531413 0.89858748162559932 0 0.053064897599294662 0.95186845269532028 0 1 0.34999999999993492 0 1 0.39999999999978308 0 0.95871855522754235 0.40006508612975411 0 1 0.59999999999973963 0 1 0.64999999999986979 0 0.95867599106212187 0.60011091146651041 0 0 0.84999999999965292 0 0.065374659239661639 0.8551091961254178 0 0.0443105827531413 0.89858748162559932 0 0 0.15000000000062411 0 0.044310582753132287 0.101412518374475 0 0.065374659239632718 0.1448908038746782 0 0.16500388252850301 0.66612077714085194 0 0.1020579365089687 0.69352219419301997 0 0.1241190223511371 0.64391885572885044 0 0.14999999999970359 0 0 0.14618258501891079 0.062070108745602003 0 0.10266856499169109 0.044518360900210059 0 0.15000000000062411 1 0 0.10266856499240549 0.95548163909968886 0 0.14617343800780541 0.93808063414349496 0 0.7152569930854884 0.5237994455134295 0 0.67569444444444449 0.53500863336860327 0 0.69385896817107129 0.48377516041410151 0 0.6541250972820879 0.49999999999999989 0 0.62042975506801734 0.54295974692364424 0 0.61547661924074692 0.48539576058873962 0 0.94999999999999996 0.69999999999999996 0 0.94399509803918602 0.75600490196082126 0 0.89999166460796554 0.74528934923809909 0 0.94999999999986839 0 0 0.94399509803922566 0.056004901960802607 0 0.899991664607802 0.045289349238254978 0 0.6541250972820879 0.49999999999999989 0 0.69385896817107129 0.48377516041410151 0 0.67569444444444449 0.53500863336860327 0 0.82862096804812391 0.55037090955459045 0 0.81723410853263523 0.59419663659258926 0 0.77151014687832564 0.54436834383023036 0 0.7250000000005199 0.89375000000045834 0 0.66412543161245952 0.88015090885499059 0 0.68697391633157634 0.84450604838764298 0 0 0.94999999999979179 0 0 0.89999999999958358 0 0.0443105827531413 0.89858748162559932 0 0 0.10000000000041601 0 0 0.050000000000207989 0 0.044310582753132287 0.101412518374475 0 0.16500388252850301 0.66612077714085194 0 0.15332765547575641 0.71200081858233666 0 0.1020579365089687 0.69352219419301997 0 0.90299850604011456 0.79563452813489832 0 0.93677536231884972 0.85000000000000286 0 0.88088768115933802 0.84674609810493673 0 0.90299850604006393 0.09563452813493091 0 0.93677536231883773 0.14999999999999089 0 0.88088768115941807 0.14674609810479519 0 0.68391457121233579 0.14440470121196541 0 0.6865991819015953 0.189116534044597 0 0.64011864159029941 0.18789607982138171 0 0.085622222639554768 0.53333248912060549 0 0.1216098864341134 0.50637075089503902 0 0.1154888278694548 0.56733818459978413 0 0.21858834311891909 0.81980263716112767 0 0.22556077506376701 0.77837424984191617 0 0.26104540868854792 0.81401944968719064 0 0.81723410853263523 0.59419663659258926 0 0.77293540622714185 0.59448302402785813 0 0.77151014687832564 0.54436834383023036 0 0.1154888278694548 0.56733818459978413 0 0.1216098864341134 0.50637075089503902 0 0.14934928745814749 0.55042914607228977 0 0.1216098864341134 0.50637075089503902 0 0.068743045408989428 0.48853989837882689 0 0.113541300460994 0.46208784312094731 0 0.078358742472063481 0.43365249433908948 0 0.113541300460994 0.46208784312094731 0 0.068743045408989428 0.48853989837882689 0 0.83573492347052902 0.36590755630746369 0 0.81308179852519835 0.39754945808726527 0 0.78145581580700685 0.34881365920033602 0 0.57611405284611883 0.50165903596042916 0 0.62042975506801734 0.54295974692364424 0 0.57435499076887508 0.54267261987897775 0 0.86956835336234861 0.571283299838105 0 0.81723410853263523 0.59419663659258926 0 0.82862096804812391 0.55037090955459045 0 0.46666084890304671 0.57634471035397938 0 0.53245488764484505 0.55078124999999989 0 0.5166924242153631 0.59825134841919447 0 0.89999999999999991 0.69999999999999996 0 0.94999999999999996 0.69999999999999996 0 0.89999166460796554 0.74528934923809909 0 0.89999999999973679 0 0 0.94999999999986839 0 0 0.899991664607802 0.045289349238254978 0 0.84999999999960507 0 0 0.89999999999973679 0 0 0.899991664607802 0.045289349238254978 0 0.84999999999999987 0.69999999999999996 0 0.89999999999999991 0.69999999999999996 0 0.89999166460796554 0.74528934923809909 0 0.43545892161006339 0.61093128915313821 0 0.4089290844030305 0.58728915500154233 0 0.46666084890304671 0.57634471035397938 0 0.1650278706801647 0.38791388161335733 0 0.1117088112799664 0.38831403004970022 0 0.14223753364722069 0.3341983344262433 0 0.087545339447545459 0.35122518864182262 0 0.14223753364722069 0.3341983344262433 0 0.1117088112799664 0.38831403004970022 0 0.6916490518212759 0.75387992374886192 0 0.72501250972655151 0.74067302935308721 0 0.72500000000000064 0.7952620967744265 0 0.72501250972655151 0.74067302935308721 0 0.75841349681148107 0.75422312624214749 0 0.72500000000000064 0.7952620967744265 0 0.57412547362576272 0.58273804879550706 0 0.53245488764484505 0.55078124999999989 0 0.57435499076887508 0.54267261987897775 0 1 0.54999999999963112 0 0.95867599106212187 0.60011091146651041 0 0.93732437411268477 0.55911392101136159 0 1 0.44999999999963131 0 0.93814194660195893 0.44426664081746747 0 0.95871855522754235 0.40006508612975411 0 0.4089290844030305 0.58728915500154233 0 0.42644501560315817 0.54603747078095544 0 0.46666084890304671 0.57634471035397938 0 0.89999999999958358 1 0 0.84999999999965292 1 0 0.89898474358632463 0.95391965591118966 0 0.84999999999999987 0.29999999999999999 0 0.89898474358614167 0.25391965591104898 0 0.89999999999999991 0.29999999999999999 0 0.29999999999926641 0 0 0.32541448401678508 0.046215317981507749 0 0.27499999999933927 0.060310814194988557 0 0.30000000000124832 1 0 0.27609987656793722 0.94991445621608572 0 0.32544832635163229 0.95485394099568932 0 0.57412547362576272 0.58273804879550706 0 0.62042975506801734 0.54295974692364424 0 0.63065402604362242 0.59661356661633302 0 0.5 0.29999999999999999 0 0.54248833945060504 0.2520322959927106 0 0.54999999999999993 0.29999999999999999 0 0.67323294229744413 0.57556450033612505 0 0.62042975506801734 0.54295974692364424 0 0.67569444444444449 0.53500863336860327 0 0.6541250972820879 0.49999999999999989 0 0.67569444444444449 0.53500863336860327 0 0.62042975506801734 0.54295974692364424 0 1 0.14999999999961891 0 1 0.19999999999974799 0 0.95391631417672862 0.19584263333809451 0 1 0.84999999999982645 0 1 0.8999999999998336 0 0.95391631417670719 0.89584263333814784 0 1 0.7999999999998193 0 1 0.84999999999982645 0 0.95386563387742829 0.80414874155775029 0 1 0.099999999999753911 0 1 0.14999999999961891 0 0.95386563387744361 0.1041487415577465 0 0.4656888918609538 0.78493261229743638 0 0.50627822638148745 0.8263979829520941 0 0.45677673713123867 0.84253684404072415 0 0.6879972333610942 0.43038561374960838 0 0.72622533758026719 0.40265885511101601 0 0.73483647259922602 0.44789725365921768 0 0.67323294229744413 0.57556450033612505 0 0.67569444444444449 0.53500863336860327 0 0.71809016091162536 0.58185040402320831 0 0.7152569930854884 0.5237994455134295 0 0.71809016091162536 0.58185040402320831 0 0.67569444444444449 0.53500863336860327 0 0.65394964615507722 0.22666784374016369 0 0.59814117807200873 0.23398510860739519 0 0.64011864159029941 0.18789607982138171 0 0.55000000000173355 1 0 0.52122150208832174 0.94089974453840242 0 0.57382506491224949 0.9629411906298494 0 0.39801143831225599 0.16651381068160659 0 0.44288491854585582 0.14116182884956319 0 0.42905200079338551 0.19982395548231649 0 0.47357141910802508 0.1873585799078378 0 0.42905200079338551 0.19982395548231649 0 0.44288491854585582 0.14116182884956319 0 0.90594285160987287 0.4141265964174129 0 0.88594198078881503 0.46167788676578442 0 0.86411095495256451 0.42388805655111889 0 0.65507451745379841 0.92229208810758578 0 0.68015064798562208 0.95924320340003011 0 0.62065498684670595 0.95224934003983619 0 0.35312867752657662 0.084946736076730367 0 0.39591832466117061 0.056982757562006353 0 0.39823268594401579 0.1116623613130045 0 0.43698630808430822 0.080423614171545449 0 0.39823268594401579 0.1116623613130045 0 0.39591832466117061 0.056982757562006353 0 0.4367309254023824 0.92065556789053882 0 0.39641108128798319 0.94356127926187128 0 0.39767323751400468 0.89584229130535065 0 0.35752321586431363 0.9185439911803448 0 0.39767323751400468 0.89584229130535065 0 0.39641108128798319 0.94356127926187128 0 0.77354604466818633 0.40378688774472771 0 0.77972660463949339 0.45529290596363098 0 0.73483647259922602 0.44789725365921768 0 0.5499999999988151 0 0 0.57396793757665954 0.037011367187645222 0 0.52375890611712683 0.059318771819432882 0 0.64753070846764316 0.77332939069435502 0 0.60294066490120068 0.80851322453934582 0 0.59636844454254345 0.75937156204589151 0 0.49102375406324739 0.49123754822244059 0 0.48858720058566618 0.43964267759203868 0 0.53823865529665704 0.45873898050322898 0 0.28307294598219601 0.50789252727458634 0 0.29110487519241501 0.56588143995431495 0 0.25115337790845271 0.54719303014923271 0 0.79680861578988083 0.92656778056766709 0 0.81159157511211755 0.88795995483179491 0 0.85170973911348691 0.93569607295217616 0 0.79680861578956375 0.22656778056752541 0 0.81283102246527783 0.1881007222486438 0 0.8517097391133297 0.2356960729520409 0 0.57412547362576272 0.58273804879550706 0 0.57435499076887508 0.54267261987897775 0 0.62042975506801734 0.54295974692364424 0 0.93814194660195893 0.44426664081746747 0 0.88594198078881503 0.46167788676578442 0 0.90594285160987287 0.4141265964174129 0 0.7152569930854884 0.5237994455134295 0 0.73947346780852752 0.49062440112282169 0 0.77151014687832564 0.54436834383023036 0 0 0.7000000000006934 0 0.046634677244967337 0.671418230738282 0 0.049706944316475897 0.72477277076253799 0 0 0.30000000000124832 0 0.049706944316556423 0.27522722923869108 0 0.046389130980076937 0.32668781832131749 0 0.59814117807200873 0.23398510860739519 0 0.59443395090188023 0.18455690917515069 0 0.64011864159029941 0.18789607982138171 0 0.21858834311891909 0.81980263716112767 0 0.26104540868854792 0.81401944968719064 0 0.2401283238295133 0.85648409884788523 0 0.39536230704883951 0.84069429572832477 0 0.45677673713123867 0.84253684404072415 0 0.44003836461056539 0.88093474584252718 0 0.086179601630648681 0.64647209519980475 0 0.050069554451969707 0.61308520079857043 0 0.1024350934457823 0.60772393977513839 0 0.077693244765132896 0.56932317963405099 0 0.1024350934457823 0.60772393977513839 0 0.050069554451969707 0.61308520079857043 0 0.078358742472063481 0.43365249433908948 0 0.050583896093752537 0.38543522283434112 0 0.1117088112799664 0.38831403004970022 0 0.087545339447545459 0.35122518864182262 0 0.1117088112799664 0.38831403004970022 0 0.050583896093752537 0.38543522283434112 0 0.33403534827021109 0.84402799729020661 0 0.35642984951668422 0.80994399665655703 0 0.39536230704883951 0.84069429572832477 0 0.28307294598219601 0.50789252727458634 0 0.33190227185843768 0.52715113583864037 0 0.29110487519241501 0.56588143995431495 0 0.2236846579037573 0.67380363126050236 0 0.19068556247388771 0.71028988922845504 0 0.16500388252850301 0.66612077714085194 0 0.26104540868854792 0.81401944968719064 0 0.22556077506376701 0.77837424984191617 0 0.2792923945214143 0.77665808831789485 0 0.38244435121258652 0.51653317813019495 0 0.37272913873093971 0.56192925302619479 0 0.33190227185843768 0.52715113583864037 0 0.25195515620380449 0.25883339815888678 0 0.29132859388405002 0.27203693976649962 0 0.24432083401701241 0.3006253385567515 0 0.29348325746214782 0.31350119524708198 0 0.24432083401701241 0.3006253385567515 0 0.29132859388405002 0.27203693976649962 0 0 0.89999999999958358 0 0 0.84999999999965292 0 0.0443105827531413 0.89858748162559932 0 0 0.15000000000062411 0 0 0.10000000000041601 0 0.044310582753132287 0.101412518374475 0 0.59999999999999976 0.69999999999999996 0 0.59636844454254345 0.75937156204589151 0 0.55363780716230748 0.74348740161571747 0 0.1650278706801647 0.38791388161335733 0 0.22033343844674469 0.36963382230740238 0 0.191953871957803 0.42546416763755879 0 0.52289427570932567 0.3932284363388488 0 0.46655310992796922 0.39650496622958609 0 0.49077833859261139 0.35229981449445641 0 0.91696753777131557 0.497780560203536 0 0.88594198078881503 0.46167788676578442 0 0.93814194660195893 0.44426664081746747 0 0.24999999999941211 0 0 0.27499999999933927 0.060310814194988557 0 0.22668068146512929 0.045875643423131329 0 0.25000000000104028 1 0 0.22850979588452081 0.95594428570238643 0 0.27609987656793722 0.94991445621608572 0 0.77846603114747959 0.49850927265137401 0 0.77151014687832564 0.54436834383023036 0 0.73947346780852752 0.49062440112282169 0 0.27499999999933927 0.060310814194988557 0 0.27474541102162192 0.11822029332053539 0 0.24218496799700481 0.089025544070598317 0 0.27270076654418179 0.87751467830216623 0 0.29209212897034281 0.84715728365233667 0 0.30864387279288652 0.89906554525974958 0 0.3096713403101819 0.085471541595262421 0 0.27474541102162192 0.11822029332053539 0 0.27499999999933927 0.060310814194988557 0 0.17933913398461551 0.2350063570234002 0 0.18124454140915969 0.18790916706335251 0 0.224700362040408 0.22206622194729711 0 0.18269480424590959 0.75905448272264375 0 0.22556077506376701 0.77837424984191617 0 0.17777405986036951 0.81832336108265358 0 0.35864759629805099 0.87963482415279515 0 0.33403534827021109 0.84402799729020661 0 0.39536230704883951 0.84069429572832477 0 0.77354604466818633 0.40378688774472771 0 0.73483647259922602 0.44789725365921768 0 0.72622533758026719 0.40265885511101601 0 0.80185942888539485 0.77452061303608133 0 0.85491058998424563 0.76004753345552634 0 0.84725310900444062 0.80779732082917555 0 0.80185942888501827 0.074520613036224564 0 0.85491058998398861 0.060047533455626502 0 0.84725310900442086 0.10779732082922661 0 0.086179601630648681 0.64647209519980475 0 0.046634677244967337 0.671418230738282 0 0.050069554451969707 0.61308520079857043 0 0.087545339447545459 0.35122518864182262 0 0.050583896093752537 0.38543522283434112 0 0.046389130980076937 0.32668781832131749 0 0 0.75000000000034661 0 0.049706944316475897 0.72477277076253799 0 0.04408157711937423 0.7728941757575627 0 0 0.25000000000104028 0 0.044081577119474857 0.2271058242433576 0 0.049706944316556423 0.27522722923869108 0 0.52289427570932567 0.3932284363388488 0 0.56836770495988642 0.3523062350852913 0 0.57744073070774993 0.41535148636609359 0 0.6084546825910605 0.37989672713932537 0 0.57744073070774993 0.41535148636609359 0 0.56836770495988642 0.3523062350852913 0 0.61343887413683884 0.856862479058357 0 0.55899371797446828 0.85003102233514438 0 0.60294066490120068 0.80851322453934582 0 0.54782696902220018 0.79245182748204157 0 0.60294066490120068 0.80851322453934582 0 0.55899371797446828 0.85003102233514438 0 0.40326160981139969 0.73346192995102844 0 0.36622285152418499 0.69092437780804039 0 0.43323420005758778 0.6913544522562407 0 0.52289427570932567 0.3932284363388488 0 0.48858720058566618 0.43964267759203868 0 0.46655310992796922 0.39650496622958609 0 0.15720202157091859 0.60665697304410315 0 0.1154888278694548 0.56733818459978413 0 0.14934928745814749 0.55042914607228977 0 0.6879972333610942 0.43038561374960838 0 0.73483647259922602 0.44789725365921768 0 0.69385896817107129 0.48377516041410151 0 0.7250000000005199 0.89375000000045834 0 0.68987011941058407 0.92105047536677087 0 0.66412543161245952 0.88015090885499059 0 0.83573492347052902 0.36590755630746369 0 0.78145581580700685 0.34881365920033602 0 0.82500000000000062 0.33010209762754811 0 0.82862096804812391 0.55037090955459045 0 0.81441713509985358 0.51161854125224959 0 0.86907294890112186 0.52008116128001669 0 0.19670163708476801 0.31472518408333222 0 0.14223753364722069 0.3341983344262433 0 0.168349569971391 0.28054490850913671 0 0.50202631463681879 0.87892870825713787 0 0.45677673713123867 0.84253684404072415 0 0.50627822638148745 0.8263979829520941 0 0.099999999999814668 0 0 0.14999999999970359 0 0 0.10266856499169109 0.044518360900210059 0 0.15000000000062411 1 0 0.10000000000041601 1 0 0.10266856499240549 0.95548163909968886 0 0.67323294229744413 0.57556450033612505 0 0.63065402604362242 0.59661356661633302 0 0.62042975506801734 0.54295974692364424 0 0.083105206071467416 0.20007701332709979 0 0.13737030665753211 0.20313708640667491 0 0.095326043202144745 0.24554465089224409 0 0.083105206071452636 0.79992298667296435 0 0.090953281884486245 0.7564451946902494 0 0.1382744753146134 0.79650574229207483 0 0.50000000000205869 1 0 0.47135117303824892 0.95556877749289892 0 0.52122150208832174 0.94089974453840242 0 0.49999999999869432 0 0 0.52375890611712683 0.059318771819432882 0 0.47040171442036788 0.044141676406503738 0 0.4656888918609538 0.78493261229743638 0 0.45582236402875981 0.73896743678908217 0 0.50945740445113552 0.75476055527778108 0 0.5 0.69999999999999996 0 0.50945740445113552 0.75476055527778108 0 0.45582236402875981 0.73896743678908217 0 0.55306006949600994 0.20198184231352201 0 0.56202748619534593 0.15054058349222879 0 0.59443395090188023 0.18455690917515069 0 0.6236733212988993 0.14864538214901801 0 0.59443395090188023 0.18455690917515069 0 0.56202748619534593 0.15054058349222879 0 0.57412547362576272 0.58273804879550706 0 0.5498280205245758 0.6290146943450976 0 0.5166924242153631 0.59825134841919447 0 0.91696753777131557 0.497780560203536 0 0.93814194660195893 0.44426664081746747 0 0.96228564064454991 0.48206450662049471 0 0.15720202157091859 0.60665697304410315 0 0.16500388252850301 0.66612077714085194 0 0.1241190223511371 0.64391885572885044 0 0.44288491854585582 0.14116182884956319 0 0.47881186583059909 0.093591717165689425 0 0.48466639505193998 0.1421439844745814 0 1 0.54999999999963112 0 0.93732437411268477 0.55911392101136159 0 0.95631871884947484 0.51827533208233789 0 0.57724883562309992 0.92155686857100794 0 0.57382506491224949 0.9629411906298494 0 0.52122150208832174 0.94089974453840242 0 0.85170973911348691 0.93569607295217616 0 0.81159157511211755 0.88795995483179491 0 0.85600844944837662 0.88483418979512773 0 0.8517097391133297 0.2356960729520409 0 0.81283102246527783 0.1881007222486438 0 0.85600844944842547 0.1848341897950983 0 0.27866744612395528 0.38416094670951489 0 0.29124338931648802 0.43334555462578611 0 0.24049127783545701 0.41270748208749802 0 0.6084546825910605 0.37989672713932537 0 0.56836770495988642 0.3523062350852913 0 0.61959173890754571 0.33832250091341232 0 0.20050006573841939 0.53248514016039872 0 0.25115337790845271 0.54719303014923271 0 0.22549374774072969 0.58452645269293457 0 0.26573297623774761 0.59828298563722948 0 0.22549374774072969 0.58452645269293457 0 0.25115337790845271 0.54719303014923271 0 0.26104540868854792 0.81401944968719064 0 0.29209212897034281 0.84715728365233667 0 0.2401283238295133 0.85648409884788523 0 0.6236733212988993 0.14864538214901801 0 0.65290632656860115 0.11434202593454081 0 0.68391457121233579 0.14440470121196541 0 0.19901705110390991 0.9175543425573498 0 0.19741632902693801 0.86755867406447229 0 0.24536017905392571 0.90704567837671446 0 0.72500000000000064 0.7952620967744265 0 0.76901770135486491 0.84293557325473656 0 0.72863726579783861 0.85390518901155588 0 0.72500000000000064 0.7952620967744265 0 0.72863726579783861 0.85390518901155588 0 0.68697391633157634 0.84450604838764298 0 0.7250000000005199 0.89375000000045834 0 0.68697391633157634 0.84450604838764298 0 0.72863726579783861 0.85390518901155588 0 0.72525833953073282 0.1032114801687094 0 0.77144070960558853 0.14311854477243749 0 0.72634814642510737 0.16106886917518889 0 0.72525833953073282 0.1032114801687094 0 0.72634814642510737 0.16106886917518889 0 0.68391457121233579 0.14440470121196541 0 0.36622285152418499 0.69092437780804039 0 0.3977710372045391 0.65868194622830212 0 0.43323420005758778 0.6913544522562407 0 0 0.65000000000104008 0 0 0.60000000000138687 0 0.050069554451969707 0.61308520079857043 0 0 0.40000000000166441 0 0 0.35000000000145642 0 0.050583896093752537 0.38543522283434112 0 0.22033343844674469 0.36963382230740238 0 0.24049127783545701 0.41270748208749802 0 0.191953871957803 0.42546416763755879 0 0.5 0.29999999999999999 0 0.4604742573284204 0.27846934318264788 0 0.49695729691142171 0.25014895411178018 0 0.19741632902693801 0.86755867406447229 0 0.2401283238295133 0.85648409884788523 0 0.24536017905392571 0.90704567837671446 0 0 0.50000000000205869 0 0.068743045408989428 0.48853989837882689 0 0.044576108720083309 0.53509043209532614 0 0.15000000000062411 1 0 0.14617343800780541 0.93808063414349496 0 0.18474005699953849 0.96231585248064622 0 0.14999999999970359 0 0 0.184418230509967 0.038773194583122873 0 0.14618258501891079 0.062070108745602003 0 0.57667858002728545 0.078486105337742612 0 0.52375890611712683 0.059318771819432882 0 0.57396793757665954 0.037011367187645222 0 0.113541300460994 0.46208784312094731 0 0.078358742472063481 0.43365249433908948 0 0.13773355295499351 0.42497777642586831 0 0.77354604466818633 0.40378688774472771 0 0.78145581580700685 0.34881365920033602 0 0.81308179852519835 0.39754945808726527 0 0.38244435121258652 0.51653317813019495 0 0.33190227185843768 0.52715113583864037 0 0.35024835142131061 0.48654922671676981 0 0.64753070846764316 0.77332939069435502 0 0.65005442820240822 0.82644988530054031 0 0.60294066490120068 0.80851322453934582 0 0.15720202157091859 0.60665697304410315 0 0.1024350934457823 0.60772393977513839 0 0.1154888278694548 0.56733818459978413 0 0.90416666666660628 0.9041666666666166 0 0.85600844944837662 0.88483418979512773 0 0.88088768115933802 0.84674609810493673 0 0.90416666666668166 0.20416666666667119 0 0.85600844944842547 0.1848341897950983 0 0.88088768115941807 0.14674609810479519 0 0.078358742472063481 0.43365249433908948 0 0.1117088112799664 0.38831403004970022 0 0.13773355295499351 0.42497777642586831 0 0.38244435121258652 0.51653317813019495 0 0.3908716102680424 0.47010282357248828 0 0.43507373378304309 0.49699695397193322 0 0.90299850604011456 0.79563452813489832 0 0.95386563387742829 0.80414874155775029 0 0.93677536231884972 0.85000000000000286 0 0.90416666666660628 0.9041666666666166 0 0.93677536231884972 0.85000000000000286 0 0.95391631417670719 0.89584263333814784 0 0.90299850604006393 0.09563452813493091 0 0.95386563387744361 0.1041487415577465 0 0.93677536231883773 0.14999999999999089 0 0.90416666666668166 0.20416666666667119 0 0.93677536231883773 0.14999999999999089 0 0.95391631417672862 0.19584263333809451 0 0.39536230704883951 0.84069429572832477 0 0.44003836461056539 0.88093474584252718 0 0.39767323751400468 0.89584229130535065 0 0.51076801031701946 0.1202837388510348 0 0.52375890611712683 0.059318771819432882 0 0.54979595918804436 0.1060565713905809 0 0.57667858002728545 0.078486105337742612 0 0.54979595918804436 0.1060565713905809 0 0.52375890611712683 0.059318771819432882 0 0.57724883562309992 0.92155686857100794 0 0.52122150208832174 0.94089974453840242 0 0.54783390826260769 0.89287767010860219 0 0.50202631463681879 0.87892870825713787 0 0.54783390826260769 0.89287767010860219 0 0.52122150208832174 0.94089974453840242 0 0.087545339447545459 0.35122518864182262 0 0.093851963071650835 0.30582068233324772 0 0.14223753364722069 0.3341983344262433 0 0.54999999999999993 0.69999999999999996 0 0.59999999999999976 0.69999999999999996 0 0.55363780716230748 0.74348740161571747 0 0.083105206071452636 0.79992298667296435 0 0.1074251789111534 0.83564394292147814 0 0.065374659239661639 0.8551091961254178 0 0.083105206071467416 0.20007701332709979 0 0.065374659239632718 0.1448908038746782 0 0.106902708054812 0.16453234188234539 0 0.52289427570932567 0.3932284363388488 0 0.53823865529665704 0.45873898050322898 0 0.48858720058566618 0.43964267759203868 0 0.13737030665753211 0.20313708640667491 0 0.14377654328998779 0.2442024734791064 0 0.095326043202144745 0.24554465089224409 0 0.1382744753146134 0.79650574229207483 0 0.090953281884486245 0.7564451946902494 0 0.14335651144331049 0.75565258250209677 0 0.27270076654418179 0.87751467830216623 0 0.30864387279288652 0.89906554525974958 0 0.24536017905392571 0.90704567837671446 0 0.27609987656793722 0.94991445621608572 0 0.24536017905392571 0.90704567837671446 0 0.30864387279288652 0.89906554525974958 0 0.90299850604011456 0.79563452813489832 0 0.84725310900444062 0.80779732082917555 0 0.85491058998424563 0.76004753345552634 0 0.90299850604006393 0.09563452813493091 0 0.84725310900442086 0.10779732082922661 0 0.85491058998398861 0.060047533455626502 0 1 0.54999999999963112 0 1 0.59999999999973963 0 0.95867599106212187 0.60011091146651041 0 1 0.39999999999978308 0 1 0.44999999999963131 0 0.95871855522754235 0.40006508612975411 0 0.28040350263641872 0.23054717217092141 0 0.25195515620380449 0.25883339815888678 0 0.224700362040408 0.22206622194729711 0 0.84999999999999987 0.29999999999999999 0 0.87430060258887643 0.34056085888204451 0 0.82500000000000062 0.33010209762754811 0 0.84999999999999987 0.69999999999999996 0 0.82457059160610424 0.66831947184359608 0 0.87712158428786946 0.65709029563313581 0 0.86956835336234861 0.571283299838105 0 0.87159648282691515 0.61285406320581504 0 0.81723410853263523 0.59419663659258926 0 0.43698630808430822 0.080423614171545449 0 0.47881186583059909 0.093591717165689425 0 0.44288491854585582 0.14116182884956319 0 1 0.44999999999963131 0 0.96228564064454991 0.48206450662049471 0 0.93814194660195893 0.44426664081746747 0 0.35752321586431363 0.9185439911803448 0 0.30864387279288652 0.89906554525974958 0 0.35864759629805099 0.87963482415279515 0 0.29124338931648802 0.43334555462578611 0 0.25982634974572738 0.46097799597715272 0 0.24049127783545701 0.41270748208749802 0 0.51076801031701946 0.1202837388510348 0 0.56202748619534593 0.15054058349222879 0 0.51729576145820033 0.1683240575987815 0 0.55306006949600994 0.20198184231352201 0 0.51729576145820033 0.1683240575987815 0 0.56202748619534593 0.15054058349222879 0 0.26429849586623999 0.19346700179430079 0 0.28040350263641872 0.23054717217092141 0 0.224700362040408 0.22206622194729711 0 0.51076801031701946 0.1202837388510348 0 0.48466639505193998 0.1421439844745814 0 0.47881186583059909 0.093591717165689425 0 0.2185883431182947 0.18019736283949719 0 0.26429849586623999 0.19346700179430079 0 0.224700362040408 0.22206622194729711 0 0.18269480424590959 0.75905448272264375 0 0.2248999640082178 0.72584299459689172 0 0.22556077506376701 0.77837424984191617 0 0.51076801031701946 0.1202837388510348 0 0.47881186583059909 0.093591717165689425 0 0.52375890611712683 0.059318771819432882 0 0.50202631463681879 0.87892870825713787 0 0.52122150208832174 0.94089974453840242 0 0.47401147028110507 0.91529957330468115 0 0 0.84999999999965292 0 0.038512288486097702 0.8155852717111195 0 0.065374659239661639 0.8551091961254178 0 0 0.15000000000062411 0 0.065374659239632718 0.1448908038746782 0 0.038512288486115001 0.1844147282893184 0 0.2185883431182947 0.18019736283949719 0 0.224700362040408 0.22206622194729711 0 0.18124454140915969 0.18790916706335251 0 0.21858834311891909 0.81980263716112767 0 0.17777405986036951 0.81832336108265358 0 0.22556077506376701 0.77837424984191617 0 0.1215415378367805 0.72939333680004137 0 0.1020579365089687 0.69352219419301997 0 0.15332765547575641 0.71200081858233666 0 0.49695729691142171 0.25014895411178018 0 0.50760557329222289 0.20700468884612061 0 0.54248833945060504 0.2520322959927106 0 0.15720202157091859 0.60665697304410315 0 0.14934928745814749 0.55042914607228977 0 0.18381867841758909 0.57774125163628387 0 0.90416666666660628 0.9041666666666166 0 0.85170973911348691 0.93569607295217616 0 0.85600844944837662 0.88483418979512773 0 0.90416666666668166 0.20416666666667119 0 0.8517097391133297 0.2356960729520409 0 0.85600844944842547 0.1848341897950983 0 0.17933913398461551 0.2350063570234002 0 0.13737030665753211 0.20313708640667491 0 0.18124454140915969 0.18790916706335251 0 0.18269480424590959 0.75905448272264375 0 0.17777405986036951 0.81832336108265358 0 0.1382744753146134 0.79650574229207483 0 0.1216098864341134 0.50637075089503902 0 0.15801167086041079 0.46008690540259539 0 0.16618607197337229 0.50652878253548905 0 0.50760557329222289 0.20700468884612061 0 0.55306006949600994 0.20198184231352201 0 0.54248833945060504 0.2520322959927106 0 0.75000000000034661 1 0 0.7000000000006934 1 0 0.7250000000005199 0.94981617647078953 0 0.69999999999999984 0.29999999999999999 0 0.72500000000000064 0.2498161764706 0 0.74999999999999989 0.29999999999999999 0 0.72525833953073282 0.1032114801687094 0 0.68391457121233579 0.14440470121196541 0 0.68330259535470161 0.10038702501083881 0 0.43249999999999988 0.43937499999999979 0 0.46655310992796922 0.39650496622958609 0 0.48858720058566618 0.43964267759203868 0 0.19901705110390991 0.9175543425573498 0 0.14617343800780541 0.93808063414349496 0 0.16206583317966519 0.89685560785156404 0 0.19922788606653311 0.085920220746880993 0 0.16141998738593399 0.10404039647458049 0 0.14618258501891079 0.062070108745602003 0 0.31378396441836959 0.70157213313026345 0 0.26439878998046262 0.7048065392091396 0 0.27820712747429932 0.65530134213254643 0 0.1216098864341134 0.50637075089503902 0 0.113541300460994 0.46208784312094731 0 0.15801167086041079 0.46008690540259539 0 0.6084546825910605 0.37989672713932537 0 0.65481233915350323 0.35652751921065562 0 0.63912439215427275 0.41063340167983359 0 0.19901705110390991 0.9175543425573498 0 0.18474005699953849 0.96231585248064622 0 0.14617343800780541 0.93808063414349496 0 0.19922788606653311 0.085920220746880993 0 0.14618258501891079 0.062070108745602003 0 0.184418230509967 0.038773194583122873 0 0.38244435121258652 0.51653317813019495 0 0.35024835142131061 0.48654922671676981 0 0.3908716102680424 0.47010282357248828 0 0.82709327591102189 0.14937141670914489 0 0.77144070960558853 0.14311854477243749 0 0.80076557130237269 0.1154587552654202 0 0.82709327591091286 0.84937141670920724 0 0.76901770135486491 0.84293557325473656 0 0.80041942726660109 0.81543261647703358 0 0.43698630808430822 0.080423614171545449 0 0.44288491854585582 0.14116182884956319 0 0.39823268594401579 0.1116623613130045 0 0.39801143831225599 0.16651381068160659 0 0.39823268594401579 0.1116623613130045 0 0.44288491854585582 0.14116182884956319 0 0.36575549820117997 0.31677992835137742 0 0.3786248352540974 0.27082301512024259 0 0.41914690343363781 0.30688979866601612 0 0.42377727103934271 0.25099357235810238 0 0.41914690343363781 0.30688979866601612 0 0.3786248352540974 0.27082301512024259 0 0.049706944316475897 0.72477277076253799 0 0.1020579365089687 0.69352219419301997 0 0.090953281884486245 0.7564451946902494 0 0.1215415378367805 0.72939333680004137 0 0.090953281884486245 0.7564451946902494 0 0.1020579365089687 0.69352219419301997 0 0.1247745017231483 0.27198077544791172 0 0.093851963071650835 0.30582068233324772 0 0.095326043202144745 0.24554465089224409 0 0.049706944316556423 0.27522722923869108 0 0.095326043202144745 0.24554465089224409 0 0.093851963071650835 0.30582068233324772 0 0.77354604466818633 0.40378688774472771 0 0.81973119833356312 0.43505687159469048 0 0.77972660463949339 0.45529290596363098 0 0.43249999999999988 0.43937499999999979 0 0.43507373378304309 0.49699695397193322 0 0.3908716102680424 0.47010282357248828 0 0.26573297623774761 0.59828298563722948 0 0.2459498854893499 0.63248470766216769 0 0.22549374774072969 0.58452645269293457 0 0.72500000000000064 0.7952620967744265 0 0.77094201086366854 0.79647480515688507 0 0.76901770135486491 0.84293557325473656 0 0.72525833953073282 0.1032114801687094 0 0.76878382444651716 0.097147941686331368 0 0.77144070960558853 0.14311854477243749 0 0.72500000000000064 0.7952620967744265 0 0.68697391633157634 0.84450604838764298 0 0.68024162096458085 0.79868546898116533 0 0.31378396441836959 0.70157213313026345 0 0.29904318922293632 0.74132814928635593 0 0.26439878998046262 0.7048065392091396 0 0.31378396441836959 0.70157213313026345 0 0.35415581127540569 0.73730480045900215 0 0.29904318922293632 0.74132814928635593 0 0.61343887413683884 0.856862479058357 0 0.65005442820240822 0.82644988530054031 0 0.66412543161245952 0.88015090885499059 0 0.68697391633157634 0.84450604838764298 0 0.66412543161245952 0.88015090885499059 0 0.65005442820240822 0.82644988530054031 0 0.083411279318375747 0.91030024466934134 0 0.065374659239661639 0.8551091961254178 0 0.10562472963403439 0.87143394428979881 0 0.083411279318303222 0.089699755330707398 0 0.1053400320299198 0.12877248826361379 0 0.065374659239632718 0.1448908038746782 0 0.55306006949600994 0.20198184231352201 0 0.59443395090188023 0.18455690917515069 0 0.59814117807200873 0.23398510860739519 0 0.84999999999999987 0.29999999999999999 0 0.89999999999999991 0.29999999999999999 0 0.87430060258887643 0.34056085888204451 0 0.84999999999999987 0.69999999999999996 0 0.87712158428786946 0.65709029563313581 0 0.89999999999999991 0.69999999999999996 0 0.34258405725730701 0.4444034294386992 0 0.3908716102680424 0.47010282357248828 0 0.35024835142131061 0.48654922671676981 0 0.26573297623774761 0.59828298563722948 0 0.31502927232353312 0.6134992213375432 0 0.27820712747429932 0.65530134213254643 0 0.91696753777131557 0.497780560203536 0 0.86907294890112186 0.52008116128001669 0 0.88594198078881503 0.46167788676578442 0 0.84723782639812573 0.48638347960178252 0 0.88594198078881503 0.46167788676578442 0 0.86907294890112186 0.52008116128001669 0 0.7152569930854884 0.5237994455134295 0 0.77151014687832564 0.54436834383023036 0 0.71809016091162536 0.58185040402320831 0 0.90416666666660628 0.9041666666666166 0 0.89898474358632463 0.95391965591118966 0 0.85170973911348691 0.93569607295217616 0 0.90416666666668166 0.20416666666667119 0 0.89898474358614167 0.25391965591104898 0 0.8517097391133297 0.2356960729520409 0 0.91750694127107502 0.36982372220068471 0 0.95780851984364423 0.34215720972155339 0 0.95871855522754235 0.40006508612975411 0 0.91750694127105259 0.63017627779935648 0 0.95867599106212187 0.60011091146651041 0 0.9578014258160763 0.65787212321113708 0 0.90299850604011456 0.79563452813489832 0 0.88088768115933802 0.84674609810493673 0 0.84725310900444062 0.80779732082917555 0 0.90299850604006393 0.09563452813493091 0 0.88088768115941807 0.14674609810479519 0 0.84725310900442086 0.10779732082922661 0 0.1216098864341134 0.50637075089503902 0 0.16618607197337229 0.50652878253548905 0 0.14934928745814749 0.55042914607228977 0 0.20050006573841939 0.53248514016039872 0 0.14934928745814749 0.55042914607228977 0 0.16618607197337229 0.50652878253548905 0 0.80185942888539485 0.77452061303608133 0 0.84725310900444062 0.80779732082917555 0 0.80041942726660109 0.81543261647703358 0 0.80185942888501827 0.074520613036224564 0 0.84725310900442086 0.10779732082922661 0 0.80076557130237269 0.1154587552654202 0 0.083105206071452636 0.79992298667296435 0 0.065374659239661639 0.8551091961254178 0 0.038512288486097702 0.8155852717111195 0 0.083105206071467416 0.20007701332709979 0 0.038512288486115001 0.1844147282893184 0 0.065374659239632718 0.1448908038746782 0 0.54782696902220018 0.79245182748204157 0 0.59636844454254345 0.75937156204589151 0 0.60294066490120068 0.80851322453934582 0 0.083411279318375747 0.91030024466934134 0 0.0443105827531413 0.89858748162559932 0 0.065374659239661639 0.8551091961254178 0 0.083411279318303222 0.089699755330707398 0 0.065374659239632718 0.1448908038746782 0 0.044310582753132287 0.101412518374475 0 0.84999999999965292 1 0 0.81486180804382891 0.96321394949790495 0 0.85170973911348691 0.93569607295217616 0 0.84999999999999987 0.29999999999999999 0 0.81486180804364938 0.26321394949780091 0 0.8517097391133297 0.2356960729520409 0 0.4656888918609538 0.78493261229743638 0 0.45677673713123867 0.84253684404072415 0 0.42609163930740518 0.80361684430568059 0 0.39536230704883951 0.84069429572832477 0 0.42609163930740518 0.80361684430568059 0 0.45677673713123867 0.84253684404072415 0 0.6236733212988993 0.14864538214901801 0 0.56202748619534593 0.15054058349222879 0 0.58516465772821369 0.11653801664834119 0 0.57412547362576272 0.58273804879550706 0 0.63065402604362242 0.59661356661633302 0 0.5991018319127801 0.62925360607495295 0 0.61343887413683884 0.856862479058357 0 0.5832743223239254 0.88483152652961872 0 0.55899371797446828 0.85003102233514438 0 0.50202631463681879 0.87892870825713787 0 0.55899371797446828 0.85003102233514438 0 0.54783390826260769 0.89287767010860219 0 0.51076801031701946 0.1202837388510348 0 0.54979595918804436 0.1060565713905809 0 0.56202748619534593 0.15054058349222879 0 0.55306006949600994 0.20198184231352201 0 0.59814117807200873 0.23398510860739519 0 0.54248833945060504 0.2520322959927106 0 0.83573492347052902 0.36590755630746369 0 0.82500000000000062 0.33010209762754811 0 0.87430060258887643 0.34056085888204451 0 0.83758014339878906 0.63222013025741819 0 0.87712158428786946 0.65709029563313581 0 0.82457059160610424 0.66831947184359608 0 0.49102375406324739 0.49123754822244059 0 0.53823865529665704 0.45873898050322898 0 0.53330375813596242 0.50827942741749099 0 0.52289427570932567 0.3932284363388488 0 0.57744073070774993 0.41535148636609359 0 0.53823865529665704 0.45873898050322898 0 0.4089290844030305 0.58728915500154233 0 0.37272913873093971 0.56192925302619479 0 0.42644501560315817 0.54603747078095544 0 0.49695729691142171 0.25014895411178018 0 0.4604742573284204 0.27846934318264788 0 0.46429753744194407 0.22870891180733599 0 0.90299850604011456 0.79563452813489832 0 0.85491058998424563 0.76004753345552634 0 0.89999166460796554 0.74528934923809909 0 0.90299850604006393 0.09563452813493091 0 0.85491058998398861 0.060047533455626502 0 0.899991664607802 0.045289349238254978 0 0.38244435121258652 0.51653317813019495 0 0.42644501560315817 0.54603747078095544 0 0.37272913873093971 0.56192925302619479 0 0.71406021706547751 0.63292083137662503 0 0.71809016091162536 0.58185040402320831 0 0.74994237037456724 0.62775548192980357 0 0.84723782639812573 0.48638347960178252 0 0.86907294890112186 0.52008116128001669 0 0.81441713509985358 0.51161854125224959 0 0.33122374654748771 0.57588941099433744 0 0.33190227185843768 0.52715113583864037 0 0.37272913873093971 0.56192925302619479 0 0.086179601630648681 0.64647209519980475 0 0.1241190223511371 0.64391885572885044 0 0.1020579365089687 0.69352219419301997 0 0.59999999999894682 0 0 0.64999999999907843 0 0 0.61940220174112337 0.047251958781050582 0 0.18269480424590959 0.75905448272264375 0 0.14335651144331049 0.75565258250209677 0 0.15332765547575641 0.71200081858233666 0 0.22549374774072969 0.58452645269293457 0 0.2459498854893499 0.63248470766216769 0 0.19914261668318661 0.62286739485272158 0 0.38244435121258652 0.51653317813019495 0 0.43507373378304309 0.49699695397193322 0 0.42644501560315817 0.54603747078095544 0 0.65000000000104008 1 0 0.60000000000138687 1 0 0.62065498684670595 0.95224934003983619 0 0.078358742472063481 0.43365249433908948 0 0.068743045408989428 0.48853989837882689 0 0.033550201249889847 0.46247875832467239 0 0.2236846579037573 0.67380363126050236 0 0.27820712747429932 0.65530134213254643 0 0.26439878998046262 0.7048065392091396 0 0.6879972333610942 0.43038561374960838 0 0.68128176404677243 0.38629093627004979 0 0.72622533758026719 0.40265885511101601 0 0.72525833953073282 0.1032114801687094 0 0.7010294155333181 0.056779085686491267 0 0.7527966693318906 0.053051678021508272 0 0.18269480424590959 0.75905448272264375 0 0.15332765547575641 0.71200081858233666 0 0.19068556247388771 0.71028988922845504 0 0.1216098864341134 0.50637075089503902 0 0.085622222639554768 0.53333248912060549 0 0.068743045408989428 0.48853989837882689 0 0.25676291524611189 0.7436741304886243 0 0.26439878998046262 0.7048065392091396 0 0.29904318922293632 0.74132814928635593 0 0.65481233915350323 0.35652751921065562 0 0.68128176404677243 0.38629093627004979 0 0.63912439215427275 0.41063340167983359 0 0.83573492347052902 0.36590755630746369 0 0.86844634540301924 0.38530937474099819 0 0.81308179852519835 0.39754945808726527 0 0.27270076654418179 0.87751467830216623 0 0.2401283238295133 0.85648409884788523 0 0.29209212897034281 0.84715728365233667 0 0.84999999999999987 0.69999999999999996 0 0.85491058998424563 0.76004753345552634 0 0.81864958914779962 0.73589050177899629 0 0.84999999999960507 0 0 0.85491058998398861 0.060047533455626502 0 0.81864958914740749 0.035890501779055867 0 0.18381867841758909 0.57774125163628387 0 0.19914261668318661 0.62286739485272158 0 0.15720202157091859 0.60665697304410315 0 0.22549374774072969 0.58452645269293457 0 0.19914261668318661 0.62286739485272158 0 0.18381867841758909 0.57774125163628387 0 0.79680861578988083 0.92656778056766709 0 0.85170973911348691 0.93569607295217616 0 0.81486180804382891 0.96321394949790495 0 0.79680861578956375 0.22656778056752541 0 0.8517097391133297 0.2356960729520409 0 0.81486180804364938 0.26321394949780091 0 0.20050006573841939 0.53248514016039872 0 0.23975172658309729 0.49475499200540818 0 0.25115337790845271 0.54719303014923271 0 0.28307294598219601 0.50789252727458634 0 0.25115337790845271 0.54719303014923271 0 0.23975172658309729 0.49475499200540818 0 0.20050006573841939 0.53248514016039872 0 0.18381867841758909 0.57774125163628387 0 0.14934928745814749 0.55042914607228977 0 0.19922788606653311 0.085920220746880993 0 0.22985637510995899 0.1298347970200906 0 0.18652628422869419 0.14162325200928061 0 0.33758650185219202 0.23837101504325639 0 0.38831533174504851 0.2189834941785925 0 0.3786248352540974 0.27082301512024259 0 0.42377727103934271 0.25099357235810238 0 0.3786248352540974 0.27082301512024259 0 0.38831533174504851 0.2189834941785925 0 0.19922788606653311 0.085920220746880993 0 0.18652628422869419 0.14162325200928061 0 0.16141998738593399 0.10404039647458049 0 0.54782696902220018 0.79245182748204157 0 0.55363780716230748 0.74348740161571747 0 0.59636844454254345 0.75937156204589151 0 0.82709327591091286 0.84937141670920724 0 0.88088768115933802 0.84674609810493673 0 0.85600844944837662 0.88483418979512773 0 0.82709327591102189 0.14937141670914489 0 0.88088768115941807 0.14674609810479519 0 0.85600844944842547 0.1848341897950983 0 0.27866744612395528 0.38416094670951489 0 0.22033343844674469 0.36963382230740238 0 0.25966125648670141 0.34351016742083729 0 0 0.50000000000205869 0 0.033550201249889847 0.46247875832467239 0 0.068743045408989428 0.48853989837882689 0 0.31378396441836959 0.70157213313026345 0 0.36622285152418499 0.69092437780804039 0 0.35415581127540569 0.73730480045900215 0 0.77293540622714185 0.59448302402785813 0 0.71809016091162536 0.58185040402320831 0 0.77151014687832564 0.54436834383023036 0 0.7152569930854884 0.5237994455134295 0 0.69385896817107129 0.48377516041410151 0 0.73947346780852752 0.49062440112282169 0 0.15801167086041079 0.46008690540259539 0 0.191953871957803 0.42546416763755879 0 0.19604738184454831 0.47787523520405789 0 0.57667858002728545 0.078486105337742612 0 0.61940220174112337 0.047251958781050582 0 0.61956000905586006 0.1043312481793135 0 0.65408113592120842 0.073941773121567966 0 0.61956000905586006 0.1043312481793135 0 0.61940220174112337 0.047251958781050582 0 0 0.55000000000173355 0 0 0.50000000000205869 0 0.044576108720083309 0.53509043209532614 0 0.65507451745379841 0.92229208810758578 0 0.62065498684670595 0.95224934003983619 0 0.61885627562261258 0.90282959257498208 0 0.57724883562309992 0.92155686857100794 0 0.61885627562261258 0.90282959257498208 0 0.62065498684670595 0.95224934003983619 0 0.91750694127107502 0.36982372220068471 0 0.86844634540301924 0.38530937474099819 0 0.87430060258887643 0.34056085888204451 0 0.91750694127105259 0.63017627779935648 0 0.87712158428786946 0.65709029563313581 0 0.87159648282691515 0.61285406320581504 0 0.33123028043633618 0.77629643437932982 0 0.29904318922293632 0.74132814928635593 0 0.35415581127540569 0.73730480045900215 0 0.86411095495256451 0.42388805655111889 0 0.84925632466077294 0.45359738909549091 0 0.81973119833356312 0.43505687159469048 0 0.43846182030517877 0.64845797726506715 0 0.47913475093885149 0.66010775372412711 0 0.43323420005758778 0.6913544522562407 0 0.18269480424590959 0.75905448272264375 0 0.19068556247388771 0.71028988922845504 0 0.2248999640082178 0.72584299459689172 0 0.39536230704883951 0.84069429572832477 0 0.38586766253264881 0.78219501014812498 0 0.42609163930740518 0.80361684430568059 0 0.59999999999999976 0.69999999999999996 0 0.63221990677827677 0.73442891067859706 0 0.59636844454254345 0.75937156204589151 0 0.27866744612395528 0.38416094670951489 0 0.24049127783545701 0.41270748208749802 0 0.22033343844674469 0.36963382230740238 0 0.82709327591091286 0.84937141670920724 0 0.84725310900444062 0.80779732082917555 0 0.88088768115933802 0.84674609810493673 0 0.82709327591102189 0.14937141670914489 0 0.84725310900442086 0.10779732082922661 0 0.88088768115941807 0.14674609810479519 0 0.1650278706801647 0.38791388161335733 0 0.18434624290945251 0.35208838264196463 0 0.22033343844674469 0.36963382230740238 0 0.4409427642593301 0.35743108089689513 0 0.49077833859261139 0.35229981449445641 0 0.46655310992796922 0.39650496622958609 0 0.80185942888539485 0.77452061303608133 0 0.81864958914779962 0.73589050177899629 0 0.85491058998424563 0.76004753345552634 0 0.80185942888501827 0.074520613036224564 0 0.81864958914740749 0.035890501779055867 0 0.85491058998398861 0.060047533455626502 0 0.29999999999926641 0 0 0.34999999999912063 0 0 0.32541448401678508 0.046215317981507749 0 0.35000000000145642 1 0 0.30000000000124832 1 0 0.32544832635163229 0.95485394099568932 0 0.4656888918609538 0.78493261229743638 0 0.50731287292894423 0.78963574450233831 0 0.50627822638148745 0.8263979829520941 0 0.2185883431182947 0.18019736283949719 0 0.25557216766470708 0.15874861286892261 0 0.26429849586623999 0.19346700179430079 0 1 0.29999999999999999 0 1 0.34999999999993492 0 0.95780851984364423 0.34215720972155339 0 1 0.29999999999999999 0 0.95780851984364423 0.34215720972155339 0 0.94999999999999996 0.29999999999999999 0 1 0.69999999999999996 0 0.94999999999999996 0.69999999999999996 0 0.9578014258160763 0.65787212321113708 0 1 0.69999999999999996 0 0.9578014258160763 0.65787212321113708 0 1 0.64999999999986979 0 0.91750694127107502 0.36982372220068471 0 0.90594285160987287 0.4141265964174129 0 0.86844634540301924 0.38530937474099819 0 0.91750694127105259 0.63017627779935648 0 0.87159648282691515 0.61285406320581504 0 0.91143117093204207 0.58709913730335972 0 0.74999999999999989 0.69999999999999996 0 0.7750489929959945 0.66593931409600093 0 0.79999999999999982 0.69999999999999996 0 0.74999999999999989 0.29999999999999999 0 0.79999999999999982 0.29999999999999999 0 0.78145581580700685 0.34881365920033602 0 0.54999999999999993 0.69999999999999996 0 0.57484956128872922 0.66573805030881994 0 0.59999999999999976 0.69999999999999996 0 0.90299850604011456 0.79563452813489832 0 0.94399509803918602 0.75600490196082126 0 0.95386563387742829 0.80414874155775029 0 0.90416666666660628 0.9041666666666166 0 0.95391631417670719 0.89584263333814784 0 0.94399509803919068 0.9439950980391687 0 0.90299850604006393 0.09563452813493091 0 0.94399509803922566 0.056004901960802607 0 0.95386563387744361 0.1041487415577465 0 0.90416666666668166 0.20416666666667119 0 0.95391631417672862 0.19584263333809451 0 0.94399509803921056 0.24399509803922639 0 0.22278230690790279 0.44824268025881547 0 0.19604738184454831 0.47787523520405789 0 0.191953871957803 0.42546416763755879 0 0.90299850604011456 0.79563452813489832 0 0.89999166460796554 0.74528934923809909 0 0.94399509803918602 0.75600490196082126 0 0.90299850604006393 0.09563452813493091 0 0.899991664607802 0.045289349238254978 0 0.94399509803922566 0.056004901960802607 0 0.49102375406324739 0.49123754822244059 0 0.47793794143994173 0.52940715638744962 0 0.43507373378304309 0.49699695397193322 0 0.90416666666660628 0.9041666666666166 0 0.94399509803919068 0.9439950980391687 0 0.89898474358632463 0.95391965591118966 0 0.90416666666668166 0.20416666666667119 0 0.94399509803921056 0.24399509803922639 0 0.89898474358614167 0.25391965591104898 0 0.65394964615507722 0.22666784374016369 0 0.62657463266645097 0.26524202571255862 0 0.59814117807200873 0.23398510860739519 0 0.6084546825910605 0.37989672713932537 0 0.63912439215427275 0.41063340167983359 0 0.57744073070774993 0.41535148636609359 0 0.61209567303293111 0.44669033081290321 0 0.57744073070774993 0.41535148636609359 0 0.63912439215427275 0.41063340167983359 0 0.25676291524611189 0.7436741304886243 0 0.22556077506376701 0.77837424984191617 0 0.2248999640082178 0.72584299459689172 0 0.61343887413683884 0.856862479058357 0 0.60294066490120068 0.80851322453934582 0 0.65005442820240822 0.82644988530054031 0 0.64999999999907843 0 0 0.66369801598854572 0.036327466368102787 0 0.61940220174112337 0.047251958781050582 0 0.40326160981139969 0.73346192995102844 0 0.38586766253264881 0.78219501014812498 0 0.35415581127540569 0.73730480045900215 0 0.33123028043633618 0.77629643437932982 0 0.35415581127540569 0.73730480045900215 0 0.38586766253264881 0.78219501014812498 0 0.26573297623774761 0.59828298563722948 0 0.29110487519241501 0.56588143995431495 0 0.31502927232353312 0.6134992213375432 0 0.77846603114747959 0.49850927265137401 0 0.81441713509985358 0.51161854125224959 0 0.77151014687832564 0.54436834383023036 0 0.82862096804812391 0.55037090955459045 0 0.77151014687832564 0.54436834383023036 0 0.81441713509985358 0.51161854125224959 0 0.50000000000205869 1 0 0.45000000000187229 1 0 0.47135117303824892 0.95556877749289892 0 0.44999999999882923 0 0 0.49999999999869432 0 0 0.47040171442036788 0.044141676406503738 0 0 0.7000000000006934 0 0 0.65000000000104008 0 0.046634677244967337 0.671418230738282 0 0 0.35000000000145642 0 0 0.30000000000124832 0 0.046389130980076937 0.32668781832131749 0 0.31378396441836959 0.70157213313026345 0 0.27820712747429932 0.65530134213254643 0 0.32263089806001177 0.66003674931826484 0 0.33122374654748771 0.57588941099433744 0 0.31502927232353312 0.6134992213375432 0 0.29110487519241501 0.56588143995431495 0 0.26573297623774761 0.59828298563722948 0 0.27820712747429932 0.65530134213254643 0 0.2459498854893499 0.63248470766216769 0 0.14474682429600511 0.85524784522713515 0 0.16206583317966519 0.89685560785156404 0 0.1241151115713819 0.9045666525468371 0 0.14332333627550789 0.14578431753966009 0 0.12372429750337779 0.095814237875728972 0 0.16141998738593399 0.10404039647458049 0 0.64753070846764316 0.77332939069435502 0 0.59636844454254345 0.75937156204589151 0 0.63221990677827677 0.73442891067859706 0 0.14474682429600511 0.85524784522713515 0 0.1241151115713819 0.9045666525468371 0 0.10562472963403439 0.87143394428979881 0 0.14332333627550789 0.14578431753966009 0 0.1053400320299198 0.12877248826361379 0 0.12372429750337779 0.095814237875728972 0 0.77354604466818633 0.40378688774472771 0 0.81308179852519835 0.39754945808726527 0 0.81973119833356312 0.43505687159469048 0 0.54782696902220018 0.79245182748204157 0 0.50945740445113552 0.75476055527778108 0 0.55363780716230748 0.74348740161571747 0 0.2236846579037573 0.67380363126050236 0 0.2459498854893499 0.63248470766216769 0 0.27820712747429932 0.65530134213254643 0 0.77293540622714185 0.59448302402785813 0 0.74994237037456724 0.62775548192980357 0 0.71809016091162536 0.58185040402320831 0 0 0.79999999999999982 0 0 0.75000000000034661 0 0.04408157711937423 0.7728941757575627 0 0 0.25000000000104028 0 0 0.20000000000083221 0 0.044081577119474857 0.2271058242433576 0 0.19999999999955789 0 0 0.24999999999941211 0 0 0.22668068146512929 0.045875643423131329 0 0.25000000000104028 1 0 0.20000000000083221 1 0 0.22850979588452081 0.95594428570238643 0 0.47357141910802508 0.1873585799078378 0 0.44288491854585582 0.14116182884956319 0 0.48466639505193998 0.1421439844745814 0 0.59999999999999976 0.29999999999999999 0 0.5794309697024993 0.27124795968204829 0 0.62657463266645097 0.26524202571255862 0 0.43249999999999988 0.43937499999999979 0 0.42161023666869668 0.39493916313643851 0 0.46655310992796922 0.39650496622958609 0 0.31068898841644388 0.47541502461811092 0 0.33190227185843768 0.52715113583864037 0 0.28307294598219601 0.50789252727458634 0 0.35024835142131061 0.48654922671676981 0 0.33190227185843768 0.52715113583864037 0 0.31068898841644388 0.47541502461811092 0 0.35864735590330371 0.63903383440414463 0 0.36622285152418499 0.69092437780804039 0 0.32263089806001177 0.66003674931826484 0 0.31378396441836959 0.70157213313026345 0 0.32263089806001177 0.66003674931826484 0 0.36622285152418499 0.69092437780804039 0 0.86956835336234861 0.571283299838105 0 0.90900154012161016 0.53607784105648792 0 0.91143117093204207 0.58709913730335972 0 0.6499999999999998 0.29999999999999999 0 0.65481233915350323 0.35652751921065562 0 0.61959173890754571 0.33832250091341232 0 0.4409427642593301 0.35743108089689513 0 0.46226845272279993 0.31901800744800313 0 0.49077833859261139 0.35229981449445641 0 0.5 0.29999999999999999 0 0.49077833859261139 0.35229981449445641 0 0.46226845272279993 0.31901800744800313 0 0.14999999999970359 0 0 0.19999999999955789 0 0 0.184418230509967 0.038773194583122873 0 0.20000000000083221 1 0 0.15000000000062411 1 0 0.18474005699953849 0.96231585248064622 0 1 0.49999999999950101 0 1 0.54999999999963112 0 0.95631871884947484 0.51827533208233789 0 0.38586766253264881 0.78219501014812498 0 0.42676259796334498 0.76772545931379299 0 0.42609163930740518 0.80361684430568059 0 0.20050006573841939 0.53248514016039872 0 0.22549374774072969 0.58452645269293457 0 0.18381867841758909 0.57774125163628387 0 0.065374659239661639 0.8551091961254178 0 0.1074251789111534 0.83564394292147814 0 0.10562472963403439 0.87143394428979881 0 0.065374659239632718 0.1448908038746782 0 0.1053400320299198 0.12877248826361379 0 0.106902708054812 0.16453234188234539 0 0.1650278706801647 0.38791388161335733 0 0.14223753364722069 0.3341983344262433 0 0.18434624290945251 0.35208838264196463 0 0.43249999999999988 0.43937499999999979 0 0.46111841286828259 0.46690301029591341 0 0.43507373378304309 0.49699695397193322 0 0.83758014339878906 0.63222013025741819 0 0.81723410853263523 0.59419663659258926 0 0.87159648282691515 0.61285406320581504 0 0.19670163708476801 0.31472518408333222 0 0.18434624290945251 0.35208838264196463 0 0.14223753364722069 0.3341983344262433 0 0.75000000000034661 1 0 0.7250000000005199 0.94981617647078953 0 0.770759834363826 0.95919399014344442 0 0.74999999999999989 0.29999999999999999 0 0.72500000000000064 0.2498161764706 0 0.77075983436335049 0.25919399014334171 0 0.69999999999999984 0.29999999999999999 0 0.67933712972090698 0.25920070958121938 0 0.72500000000000064 0.2498161764706 0 0.57611405284611883 0.50165903596042916 0 0.53330375813596242 0.50827942741749099 0 0.53823865529665704 0.45873898050322898 0 0.6499999999999998 0.29999999999999999 0 0.68887083591306764 0.33632058575757479 0 0.65481233915350323 0.35652751921065562 0 0.27866744612395528 0.38416094670951489 0 0.33277555741076909 0.36432196682010132 0 0.31778888742534622 0.40581751814196781 0 0.49102375406324739 0.49123754822244059 0 0.43507373378304309 0.49699695397193322 0 0.46111841286828259 0.46690301029591341 0 0.94999999999999996 0.69999999999999996 0 0.97166519676947294 0.73337114490064459 0 0.94399509803918602 0.75600490196082126 0 0.94999999999986839 0 0 0.97166519676946894 0.033371144900598393 0 0.94399509803922566 0.056004901960802607 0 0.94999999999999996 0.29999999999999999 0 0.94399509803921056 0.24399509803922639 0 0.97166519676951801 0.26662885509932011 0 0.94999999999979179 1 0 0.94399509803919068 0.9439950980391687 0 0.97166519676946206 0.96662885509935492 0 0.34258405725730701 0.4444034294386992 0 0.29124338931648802 0.43334555462578611 0 0.31778888742534622 0.40581751814196781 0 0.27866744612395528 0.38416094670951489 0 0.31778888742534622 0.40581751814196781 0 0.29124338931648802 0.43334555462578611 0 0.36575549820117997 0.31677992835137742 0 0.33277555741076909 0.36432196682010132 0 0.32752639306529541 0.32610012995269699 0 0.35752321586431363 0.9185439911803448 0 0.32544832635163229 0.95485394099568932 0 0.30864387279288652 0.89906554525974958 0 0.27609987656793722 0.94991445621608572 0 0.30864387279288652 0.89906554525974958 0 0.32544832635163229 0.95485394099568932 0 0.33123028043633618 0.77629643437932982 0 0.30857225866488791 0.81101973481716805 0 0.2792923945214143 0.77665808831789485 0 0.33758650185219202 0.23837101504325639 0 0.29132859388405002 0.27203693976649962 0 0.28040350263641872 0.23054717217092141 0 0.4409427642593301 0.35743108089689513 0 0.41914690343363781 0.30688979866601612 0 0.46226845272279993 0.31901800744800313 0 0.14332333627550789 0.14578431753966009 0 0.13737030665753211 0.20313708640667491 0 0.106902708054812 0.16453234188234539 0 0.083105206071467416 0.20007701332709979 0 0.106902708054812 0.16453234188234539 0 0.13737030665753211 0.20313708640667491 0 0.083105206071452636 0.79992298667296435 0 0.1382744753146134 0.79650574229207483 0 0.1074251789111534 0.83564394292147814 0 0.14474682429600511 0.85524784522713515 0 0.1074251789111534 0.83564394292147814 0 0.1382744753146134 0.79650574229207483 0 0.65408113592120842 0.073941773121567966 0 0.7010294155333181 0.056779085686491267 0 0.68330259535470161 0.10038702501083881 0 0.72525833953073282 0.1032114801687094 0 0.68330259535470161 0.10038702501083881 0 0.7010294155333181 0.056779085686491267 0 0.049706944316475897 0.72477277076253799 0 0.046634677244967337 0.671418230738282 0 0.1020579365089687 0.69352219419301997 0 0.086179601630648681 0.64647209519980475 0 0.1020579365089687 0.69352219419301997 0 0.046634677244967337 0.671418230738282 0 0.087545339447545459 0.35122518864182262 0 0.046389130980076937 0.32668781832131749 0 0.093851963071650835 0.30582068233324772 0 0.049706944316556423 0.27522722923869108 0 0.093851963071650835 0.30582068233324772 0 0.046389130980076937 0.32668781832131749 0 0.82709327591091286 0.84937141670920724 0 0.80041942726660109 0.81543261647703358 0 0.84725310900444062 0.80779732082917555 0 0.82709327591102189 0.14937141670914489 0 0.80076557130237269 0.1154587552654202 0 0.84725310900442086 0.10779732082922661 0 0.17933913398461551 0.2350063570234002 0 0.14377654328998779 0.2442024734791064 0 0.13737030665753211 0.20313708640667491 0 0.18269480424590959 0.75905448272264375 0 0.1382744753146134 0.79650574229207483 0 0.14335651144331049 0.75565258250209677 0 0.33758650185219202 0.23837101504325639 0 0.3786248352540974 0.27082301512024259 0 0.33402499257867951 0.28911035184473982 0 0.14332333627550789 0.14578431753966009 0 0.18124454140915969 0.18790916706335251 0 0.13737030665753211 0.20313708640667491 0 0.14474682429600511 0.85524784522713515 0 0.1382744753146134 0.79650574229207483 0 0.17777405986036951 0.81832336108265358 0 0.5 0.29999999999999999 0 0.52752007115234678 0.33170632466418198 0 0.49077833859261139 0.35229981449445641 0 0.27866744612395528 0.38416094670951489 0 0.29644548887253103 0.34914008784168082 0 0.33277555741076909 0.36432196682010132 0 0 0.84999999999965292 0 0 0.79999999999999982 0 0.038512288486097702 0.8155852717111195 0 0 0.20000000000083221 0 0 0.15000000000062411 0 0.038512288486115001 0.1844147282893184 0 0.40326160981139969 0.73346192995102844 0 0.35415581127540569 0.73730480045900215 0 0.36622285152418499 0.69092437780804039 0 0.91696753777131557 0.497780560203536 0 0.96228564064454991 0.48206450662049471 0 0.95631871884947484 0.51827533208233789 0 0.33758650185219202 0.23837101504325639 0 0.31255190597181792 0.19850845631528771 0 0.3572130504031617 0.1874703368446563 0 0.59814117807200873 0.23398510860739519 0 0.62657463266645097 0.26524202571255862 0 0.5794309697024993 0.27124795968204829 0 0.34258405725730701 0.4444034294386992 0 0.31068898841644388 0.47541502461811092 0 0.29124338931648802 0.43334555462578611 0 0.38083244760691543 0.38531983672244652 0 0.35221190152536241 0.40457127605439203 0 0.33277555741076909 0.36432196682010132 0 0.083411279318375747 0.91030024466934134 0 0.10266856499240549 0.95548163909968886 0 0.053064897599294662 0.95186845269532028 0 0.083411279318303222 0.089699755330707398 0 0.053064897599215843 0.048131547304697528 0 0.10266856499169109 0.044518360900210059 0 0.42377727103934271 0.25099357235810238 0 0.4604742573284204 0.27846934318264788 0 0.41914690343363781 0.30688979866601612 0 0.28307294598219601 0.50789252727458634 0 0.25982634974572738 0.46097799597715272 0 0.31068898841644388 0.47541502461811092 0 0.29348325746214782 0.31350119524708198 0 0.29132859388405002 0.27203693976649962 0 0.33402499257867951 0.28911035184473982 0 0.35312867752657662 0.084946736076730367 0 0.39823268594401579 0.1116623613130045 0 0.36246644853392812 0.1399454205365751 0 0.7000000000006934 1 0 0.68015064798562208 0.95924320340003011 0 0.7250000000005199 0.94981617647078953 0 0.42377727103934271 0.25099357235810238 0 0.38831533174504851 0.2189834941785925 0 0.42905200079338551 0.19982395548231649 0 0.53823865529665704 0.45873898050322898 0 0.57744073070774993 0.41535148636609359 0 0.57975577671020095 0.46172033326338591 0 0.33758650185219202 0.23837101504325639 0 0.3572130504031617 0.1874703368446563 0 0.38831533174504851 0.2189834941785925 0 0.29124338931648802 0.43334555462578611 0 0.31068898841644388 0.47541502461811092 0 0.25982634974572738 0.46097799597715272 0 0.6084546825910605 0.37989672713932537 0 0.61959173890754571 0.33832250091341232 0 0.65481233915350323 0.35652751921065562 0 0.40326160981139969 0.73346192995102844 0 0.43323420005758778 0.6913544522562407 0 0.45582236402875981 0.73896743678908217 0 0.33758650185219202 0.23837101504325639 0 0.28040350263641872 0.23054717217092141 0 0.31255190597181792 0.19850845631528771 0 0.79999999999999982 1 0 0.75000000000034661 1 0 0.770759834363826 0.95919399014344442 0 0.74999999999999989 0.29999999999999999 0 0.77075983436335049 0.25919399014334171 0 0.79999999999999982 0.29999999999999999 0 0.6499999999999998 0.29999999999999999 0 0.67933712972090698 0.25920070958121938 0 0.69999999999999984 0.29999999999999999 0 0.39536230704883951 0.84069429572832477 0 0.39767323751400468 0.89584229130535065 0 0.35864759629805099 0.87963482415279515 0 0.54999999999999993 0.69999999999999996 0 0.52584555706968406 0.66664215091846768 0 0.57484956128872922 0.66573805030881994 0 0.35312867752657662 0.084946736076730367 0 0.32541448401678508 0.046215317981507749 0 0.3615861437013822 0.03582617922508851 0 0.35752321586431363 0.9185439911803448 0 0.36184234618600131 0.96443954459096326 0 0.32544832635163229 0.95485394099568932 0 0.35312867752657662 0.084946736076730367 0 0.3615861437013822 0.03582617922508851 0 0.39591832466117061 0.056982757562006353 0 0.35752321586431363 0.9185439911803448 0 0.39641108128798319 0.94356127926187128 0 0.36184234618600131 0.96443954459096326 0 0.083411279318303222 0.089699755330707398 0 0.044310582753132287 0.101412518374475 0 0.053064897599215843 0.048131547304697528 0 0.083411279318375747 0.91030024466934134 0 0.053064897599294662 0.95186845269532028 0 0.0443105827531413 0.89858748162559932 0 0.38083244760691543 0.38531983672244652 0 0.40076539126862748 0.34589349467022118 0 0.42161023666869668 0.39493916313643851 0 0.4409427642593301 0.35743108089689513 0 0.42161023666869668 0.39493916313643851 0 0.40076539126862748 0.34589349467022118 0 0.79999999999999982 0.29999999999999999 0 0.82500000000000062 0.33010209762754811 0 0.78145581580700685 0.34881365920033602 0 0.79999999999999982 0.69999999999999996 0 0.7750489929959945 0.66593931409600093 0 0.82457059160610424 0.66831947184359608 0 0.59999999999999976 0.69999999999999996 0 0.57484956128872922 0.66573805030881994 0 0.62460753523532009 0.66851202781000296 0 0.74999999999999989 0.69999999999999996 0 0.72500000000000064 0.67022701834392062 0 0.7750489929959945 0.66593931409600093 0 0.74999999999999989 0.29999999999999999 0 0.78145581580700685 0.34881365920033602 0 0.73090396928863699 0.33699297293167962 0 0.33758650185219202 0.23837101504325639 0 0.33402499257867951 0.28911035184473982 0 0.29132859388405002 0.27203693976649962 0 0.36575549820117997 0.31677992835137742 0 0.41914690343363781 0.30688979866601612 0 0.40076539126862748 0.34589349467022118 0 0.4409427642593301 0.35743108089689513 0 0.40076539126862748 0.34589349467022118 0 0.41914690343363781 0.30688979866601612 0 0.34258405725730701 0.4444034294386992 0 0.38707855792647411 0.42299362914874578 0 0.3908716102680424 0.47010282357248828 0 0.7000000000006934 1 0 0.65000000000104008 1 0 0.68015064798562208 0.95924320340003011 0 0.49102375406324739 0.49123754822244059 0 0.46111841286828259 0.46690301029591341 0 0.48858720058566618 0.43964267759203868 0 0.4656888918609538 0.78493261229743638 0 0.42676259796334498 0.76772545931379299 0 0.45582236402875981 0.73896743678908217 0 0.40326160981139969 0.73346192995102844 0 0.45582236402875981 0.73896743678908217 0 0.42676259796334498 0.76772545931379299 0 0.59999999999999976 0.29999999999999999 0 0.62657463266645097 0.26524202571255862 0 0.6499999999999998 0.29999999999999999 0 0.40000000000166441 1 0 0.36184234618600131 0.96443954459096326 0 0.39641108128798319 0.94356127926187128 0 0.3999999999989749 0 0 0.39591832466117061 0.056982757562006353 0 0.3615861437013822 0.03582617922508851 0 0.43249999999999988 0.43937499999999979 0 0.48858720058566618 0.43964267759203868 0 0.46111841286828259 0.46690301029591341 0 0.7250000000005199 0.89375000000045834 0 0.7250000000005199 0.94981617647078953 0 0.68987011941058407 0.92105047536677087 0 0.7250000000005199 0.89375000000045834 0 0.75729602384198635 0.92353652857884294 0 0.7250000000005199 0.94981617647078953 0 0.72500000000001008 0.19776155966387679 0 0.75668890529066124 0.2244279804069782 0 0.72500000000000064 0.2498161764706 0 0.72500000000001008 0.19776155966387679 0 0.72500000000000064 0.2498161764706 0 0.69397719155551807 0.2245125647000914 0 0.79999999999999982 0.29999999999999999 0 0.81486180804364938 0.26321394949780091 0 0.84999999999999987 0.29999999999999999 0 0.84999999999965292 1 0 0.79999999999999982 1 0 0.81486180804382891 0.96321394949790495 0 0.1247745017231483 0.27198077544791172 0 0.095326043202144745 0.24554465089224409 0 0.14377654328998779 0.2442024734791064 0 0.1215415378367805 0.72939333680004137 0 0.14335651144331049 0.75565258250209677 0 0.090953281884486245 0.7564451946902494 0 0.72500000000001008 0.19776155966387679 0 0.72634814642510737 0.16106886917518889 0 0.76587607630038135 0.18880039518954719 0 0.72500000000001008 0.19776155966387679 0 0.6865991819015953 0.189116534044597 0 0.72634814642510737 0.16106886917518889 0 0.77144070960558853 0.14311854477243749 0 0.76587607630038135 0.18880039518954719 0 0.72634814642510737 0.16106886917518889 0 0.68391457121233579 0.14440470121196541 0 0.72634814642510737 0.16106886917518889 0 0.6865991819015953 0.189116534044597 0 0.7250000000005199 0.89375000000045834 0 0.72863726579783861 0.85390518901155588 0 0.76891166905518427 0.88835469571185499 0 0.76901770135486491 0.84293557325473656 0 0.76891166905518427 0.88835469571185499 0 0.72863726579783861 0.85390518901155588 0 0 0.20000000000083221 0 0.038512288486115001 0.1844147282893184 0 0.044081577119474857 0.2271058242433576 0 0 0.79999999999999982 0 0.04408157711937423 0.7728941757575627 0 0.038512288486097702 0.8155852717111195 0 0.52375890611712683 0.059318771819432882 0 0.47881186583059909 0.093591717165689425 0 0.47040171442036788 0.044141676406503738 0 0.52122150208832174 0.94089974453840242 0 0.47135117303824892 0.95556877749289892 0 0.47401147028110507 0.91529957330468115 0 0.27474541102162192 0.11822029332053539 0 0.3096713403101819 0.085471541595262421 0 0.32215584939770009 0.1218492143506909 0 0.22278230690790279 0.44824268025881547 0 0.24049127783545701 0.41270748208749802 0 0.25982634974572738 0.46097799597715272 0 0.93732437411268477 0.55911392101136159 0 0.91143117093204207 0.58709913730335972 0 0.90900154012161016 0.53607784105648792 0 0.19901705110390991 0.9175543425573498 0 0.24536017905392571 0.90704567837671446 0 0.22850979588452081 0.95594428570238643 0 0.27609987656793722 0.94991445621608572 0 0.22850979588452081 0.95594428570238643 0 0.24536017905392571 0.90704567837671446 0 0.15720202157091859 0.60665697304410315 0 0.1241190223511371 0.64391885572885044 0 0.1024350934457823 0.60772393977513839 0 0.6499999999999998 0.69999999999999996 0 0.675261390228442 0.65996937624687813 0 0.69999999999999984 0.69999999999999996 0 0.3999999999989749 0 0 0.4320097814748517 0.037406712692169303 0 0.39591832466117061 0.056982757562006353 0 0.40000000000166441 1 0 0.39641108128798319 0.94356127926187128 0 0.4308986359464303 0.96395712492906194 0 0.54999999999999993 0.29999999999999999 0 0.56836770495988642 0.3523062350852913 0 0.52752007115234678 0.33170632466418198 0 0.14474682429600511 0.85524784522713515 0 0.17777405986036951 0.81832336108265358 0 0.19741632902693801 0.86755867406447229 0 0.21858834311891909 0.81980263716112767 0 0.19741632902693801 0.86755867406447229 0 0.17777405986036951 0.81832336108265358 0 0.54782696902220018 0.79245182748204157 0 0.50731287292894423 0.78963574450233831 0 0.50945740445113552 0.75476055527778108 0 0.20000000000083221 1 0 0.18474005699953849 0.96231585248064622 0 0.22850979588452081 0.95594428570238643 0 0.19999999999955789 0 0 0.22668068146512929 0.045875643423131329 0 0.184418230509967 0.038773194583122873 0 0.77846603114747959 0.49850927265137401 0 0.73947346780852752 0.49062440112282169 0 0.77972660463949339 0.45529290596363098 0 0.73483647259922602 0.44789725365921768 0 0.77972660463949339 0.45529290596363098 0 0.73947346780852752 0.49062440112282169 0 0.34258405725730701 0.4444034294386992 0 0.35024835142131061 0.48654922671676981 0 0.31068898841644388 0.47541502461811092 0 0.33123028043633618 0.77629643437932982 0 0.2792923945214143 0.77665808831789485 0 0.29904318922293632 0.74132814928635593 0 0.26573297623774761 0.59828298563722948 0 0.25115337790845271 0.54719303014923271 0 0.29110487519241501 0.56588143995431495 0 0.4656888918609538 0.78493261229743638 0 0.50945740445113552 0.75476055527778108 0 0.50731287292894423 0.78963574450233831 0 0.35312867752657662 0.084946736076730367 0 0.36246644853392812 0.1399454205365751 0 0.32215584939770009 0.1218492143506909 0 0.29348325746214782 0.31350119524708198 0 0.25966125648670141 0.34351016742083729 0 0.24432083401701241 0.3006253385567515 0 0.59999999999999976 0.69999999999999996 0 0.6499999999999998 0.69999999999999996 0 0.63221990677827677 0.73442891067859706 0 0.69999999999921003 0 0 0.7010294155333181 0.056779085686491267 0 0.66369801598854572 0.036327466368102787 0 0.40000000000166441 1 0 0.35000000000145642 1 0 0.36184234618600131 0.96443954459096326 0 0.34999999999912063 0 0 0.3999999999989749 0 0 0.3615861437013822 0.03582617922508851 0 0.43507373378304309 0.49699695397193322 0 0.47793794143994173 0.52940715638744962 0 0.42644501560315817 0.54603747078095544 0 0.14474682429600511 0.85524784522713515 0 0.19741632902693801 0.86755867406447229 0 0.16206583317966519 0.89685560785156404 0 0.19901705110390991 0.9175543425573498 0 0.16206583317966519 0.89685560785156404 0 0.19741632902693801 0.86755867406447229 0 0.35864735590330371 0.63903383440414463 0 0.3977710372045391 0.65868194622830212 0 0.36622285152418499 0.69092437780804039 0 0.7527966693318906 0.053051678021508272 0 0.7010294155333181 0.056779085686491267 0 0.72683645290270404 0.027797073151180601 0 0.71508799138962864 0.36622814920737751 0 0.72622533758026719 0.40265885511101601 0 0.68128176404677243 0.38629093627004979 0 0.79999999999999982 0.69999999999999996 0 0.84999999999999987 0.69999999999999996 0 0.81864958914779962 0.73589050177899629 0 0.79999999999947335 0 0 0.84999999999960507 0 0 0.81864958914740749 0.035890501779055867 0 0.39536230704883951 0.84069429572832477 0 0.35642984951668422 0.80994399665655703 0 0.38586766253264881 0.78219501014812498 0 0.42377727103934271 0.25099357235810238 0 0.46429753744194407 0.22870891180733599 0 0.4604742573284204 0.27846934318264788 0 0.39801143831225599 0.16651381068160659 0 0.42905200079338551 0.19982395548231649 0 0.38831533174504851 0.2189834941785925 0 0.79999999999999982 1 0 0.770759834363826 0.95919399014344442 0 0.81486180804382891 0.96321394949790495 0 0.79999999999999982 0.29999999999999999 0 0.77075983436335049 0.25919399014334171 0 0.81486180804364938 0.26321394949780091 0 0.25195515620380449 0.25883339815888678 0 0.21049769590865089 0.26857363548218488 0 0.224700362040408 0.22206622194729711 0 0.40326160981139969 0.73346192995102844 0 0.42676259796334498 0.76772545931379299 0 0.38586766253264881 0.78219501014812498 0 0.35312867752657662 0.084946736076730367 0 0.3096713403101819 0.085471541595262421 0 0.32541448401678508 0.046215317981507749 0 0.59999999999999976 0.29999999999999999 0 0.6499999999999998 0.29999999999999999 0 0.61959173890754571 0.33832250091341232 0 0.2185883431182947 0.18019736283949719 0 0.18652628422869419 0.14162325200928061 0 0.22985637510995899 0.1298347970200906 0 0.64999999999907843 0 0 0.69999999999921003 0 0 0.66369801598854572 0.036327466368102787 0 0.27499999999933927 0.060310814194988557 0 0.24218496799700481 0.089025544070598317 0 0.22668068146512929 0.045875643423131329 0 0.19922788606653311 0.085920220746880993 0 0.22668068146512929 0.045875643423131329 0 0.24218496799700481 0.089025544070598317 0 0.65507451745379841 0.92229208810758578 0 0.66412543161245952 0.88015090885499059 0 0.68987011941058407 0.92105047536677087 0 0.049706944316475897 0.72477277076253799 0 0.090953281884486245 0.7564451946902494 0 0.04408157711937423 0.7728941757575627 0 0.083105206071452636 0.79992298667296435 0 0.04408157711937423 0.7728941757575627 0 0.090953281884486245 0.7564451946902494 0 0.083105206071467416 0.20007701332709979 0 0.095326043202144745 0.24554465089224409 0 0.044081577119474857 0.2271058242433576 0 0.049706944316556423 0.27522722923869108 0 0.044081577119474857 0.2271058242433576 0 0.095326043202144745 0.24554465089224409 0 0.36575549820117997 0.31677992835137742 0 0.33402499257867951 0.28911035184473982 0 0.3786248352540974 0.27082301512024259 0 0.53245488764484505 0.55078124999999989 0 0.53330375813596242 0.50827942741749099 0 0.57435499076887508 0.54267261987897775 0 0.57611405284611883 0.50165903596042916 0 0.57435499076887508 0.54267261987897775 0 0.53330375813596242 0.50827942741749099 0 0.6499999999999998 0.29999999999999999 0 0.69999999999999984 0.29999999999999999 0 0.68887083591306764 0.33632058575757479 0 0.57611405284611883 0.50165903596042916 0 0.53823865529665704 0.45873898050322898 0 0.57975577671020095 0.46172033326338591 0 0.7750489929959945 0.66593931409600093 0 0.72500000000000064 0.67022701834392062 0 0.74994237037456724 0.62775548192980357 0 0.78145581580700685 0.34881365920033602 0 0.74764719760526988 0.3719647154012321 0 0.73090396928863699 0.33699297293167962 0 0.3999999999989749 0 0 0.44999999999882923 0 0 0.4320097814748517 0.037406712692169303 0 0.45000000000187229 1 0 0.40000000000166441 1 0 0.4308986359464303 0.96395712492906194 0 0.57484956128872922 0.66573805030881994 0 0.5991018319127801 0.62925360607495295 0 0.62460753523532009 0.66851202781000296 0 0.7750489929959945 0.66593931409600093 0 0.79884539758237771 0.62875045078114233 0 0.82457059160610424 0.66831947184359608 0 0.39801143831225599 0.16651381068160659 0 0.36246644853392812 0.1399454205365751 0 0.39823268594401579 0.1116623613130045 0 0.078358742472063481 0.43365249433908948 0 0.033550201249889847 0.46247875832467239 0 0.035463093262830522 0.42673416072819947 0 0.25676291524611189 0.7436741304886243 0 0.2792923945214143 0.77665808831789485 0 0.22556077506376701 0.77837424984191617 0 0.2236846579037573 0.67380363126050236 0 0.2248999640082178 0.72584299459689172 0 0.19068556247388771 0.71028988922845504 0 0.50715858906372158 0.63295939104129484 0 0.5166924242153631 0.59825134841919447 0 0.5498280205245758 0.6290146943450976 0 0.14618258501891079 0.062070108745602003 0 0.12372429750337779 0.095814237875728972 0 0.10266856499169109 0.044518360900210059 0 0.083411279318303222 0.089699755330707398 0 0.10266856499169109 0.044518360900210059 0 0.12372429750337779 0.095814237875728972 0 0.083411279318375747 0.91030024466934134 0 0.1241151115713819 0.9045666525468371 0 0.10266856499240549 0.95548163909968886 0 0.14617343800780541 0.93808063414349496 0 0.10266856499240549 0.95548163909968886 0 0.1241151115713819 0.9045666525468371 0 0.5499999999988151 0 0 0.59999999999894682 0 0 0.57396793757665954 0.037011367187645222 0 0.54782696902220018 0.79245182748204157 0 0.50627822638148745 0.8263979829520941 0 0.50731287292894423 0.78963574450233831 0 0.6499999999999998 0.29999999999999999 0 0.62657463266645097 0.26524202571255862 0 0.67933712972090698 0.25920070958121938 0 0.86956835336234861 0.571283299838105 0 0.86907294890112186 0.52008116128001669 0 0.90900154012161016 0.53607784105648792 0 0.17933913398461551 0.2350063570234002 0 0.224700362040408 0.22206622194729711 0 0.21049769590865089 0.26857363548218488 0 0.43249999999999988 0.43937499999999979 0 0.3908716102680424 0.47010282357248828 0 0.38707855792647411 0.42299362914874578 0 0.27474541102162192 0.11822029332053539 0 0.22985637510995899 0.1298347970200906 0 0.24218496799700481 0.089025544070598317 0 0.64753070846764316 0.77332939069435502 0 0.66427993341343905 0.73232764502436276 0 0.6916490518212759 0.75387992374886192 0 0 0.40000000000166441 0 0.050583896093752537 0.38543522283434112 0 0.035463093262830522 0.42673416072819947 0 0.73483647259922602 0.44789725365921768 0 0.73947346780852752 0.49062440112282169 0 0.69385896817107129 0.48377516041410151 0 0.57484956128872922 0.66573805030881994 0 0.52584555706968406 0.66664215091846768 0 0.5498280205245758 0.6290146943450976 0 0.60000000000138687 1 0 0.55000000000173355 1 0 0.57382506491224949 0.9629411906298494 0 0.068743045408989428 0.48853989837882689 0 0.085622222639554768 0.53333248912060549 0 0.044576108720083309 0.53509043209532614 0 0.083105206071467416 0.20007701332709979 0 0.044081577119474857 0.2271058242433576 0 0.038512288486115001 0.1844147282893184 0 0.083105206071452636 0.79992298667296435 0 0.038512288486097702 0.8155852717111195 0 0.04408157711937423 0.7728941757575627 0 0.28307294598219601 0.50789252727458634 0 0.23975172658309729 0.49475499200540818 0 0.25982634974572738 0.46097799597715272 0 0.43698630808430822 0.080423614171545449 0 0.39591832466117061 0.056982757562006353 0 0.4320097814748517 0.037406712692169303 0 0.4367309254023824 0.92065556789053882 0 0.4308986359464303 0.96395712492906194 0 0.39641108128798319 0.94356127926187128 0 0.80185942888539485 0.77452061303608133 0 0.75841349681148107 0.75422312624214749 0 0.78578450296893509 0.73292684821144505 0 0.80185942888501827 0.074520613036224564 0 0.7527966693318906 0.053051678021508272 0 0.78393852574753176 0.032039079577822822 0 0.6499999999999998 0.69999999999999996 0 0.62460753523532009 0.66851202781000296 0 0.675261390228442 0.65996937624687813 0 0.33123028043633618 0.77629643437932982 0 0.38586766253264881 0.78219501014812498 0 0.35642984951668422 0.80994399665655703 0 0.6405463747586706 0.63290524857395714 0 0.675261390228442 0.65996937624687813 0 0.62460753523532009 0.66851202781000296 0 0.22278230690790279 0.44824268025881547 0 0.191953871957803 0.42546416763755879 0 0.24049127783545701 0.41270748208749802 0 0.077693244765132896 0.56932317963405099 0 0.050069554451969707 0.61308520079857043 0 0.034381862692950467 0.57372682250960894 0 0.25195515620380449 0.25883339815888678 0 0.24432083401701241 0.3006253385567515 0 0.21049769590865089 0.26857363548218488 0 0.46666084890304671 0.57634471035397938 0 0.5166924242153631 0.59825134841919447 0 0.47095389620662098 0.61892551373708504 0 0.50715858906372158 0.63295939104129484 0 0.47095389620662098 0.61892551373708504 0 0.5166924242153631 0.59825134841919447 0 0.72525833953073282 0.1032114801687094 0 0.7527966693318906 0.053051678021508272 0 0.76878382444651716 0.097147941686331368 0 0.80185942888501827 0.074520613036224564 0 0.76878382444651716 0.097147941686331368 0 0.7527966693318906 0.053051678021508272 0 0.72500000000000064 0.7952620967744265 0 0.75841349681148107 0.75422312624214749 0 0.77094201086366854 0.79647480515688507 0 0.80185942888539485 0.77452061303608133 0 0.77094201086366854 0.79647480515688507 0 0.75841349681148107 0.75422312624214749 0 0.72500000000000064 0.7952620967744265 0 0.68024162096458085 0.79868546898116533 0 0.6916490518212759 0.75387992374886192 0 0.64753070846764316 0.77332939069435502 0 0.6916490518212759 0.75387992374886192 0 0.68024162096458085 0.79868546898116533 0 0 0.50000000000205869 0 0 0.45000000000187229 0 0.033550201249889847 0.46247875832467239 0 0.69999999999999984 0.69999999999999996 0 0.675261390228442 0.65996937624687813 0 0.72500000000000064 0.67022701834392062 0 0.71406021706547751 0.63292083137662503 0 0.72500000000000064 0.67022701834392062 0 0.675261390228442 0.65996937624687813 0 0.65408113592120842 0.073941773121567966 0 0.61940220174112337 0.047251958781050582 0 0.66369801598854572 0.036327466368102787 0 0.59999999999894682 0 0 0.61940220174112337 0.047251958781050582 0 0.57396793757665954 0.037011367187645222 0 0.60000000000138687 1 0 0.57382506491224949 0.9629411906298494 0 0.62065498684670595 0.95224934003983619 0 0.33122374654748771 0.57588941099433744 0 0.35765792684946668 0.6000687869219653 0 0.31502927232353312 0.6134992213375432 0 0.35864735590330371 0.63903383440414463 0 0.31502927232353312 0.6134992213375432 0 0.35765792684946668 0.6000687869219653 0 0.15801167086041079 0.46008690540259539 0 0.19604738184454831 0.47787523520405789 0 0.16618607197337229 0.50652878253548905 0 0.078358742472063481 0.43365249433908948 0 0.035463093262830522 0.42673416072819947 0 0.050583896093752537 0.38543522283434112 0 0.19901705110390991 0.9175543425573498 0 0.22850979588452081 0.95594428570238643 0 0.18474005699953849 0.96231585248064622 0 0.19922788606653311 0.085920220746880993 0 0.184418230509967 0.038773194583122873 0 0.22668068146512929 0.045875643423131329 0 0.19922788606653311 0.085920220746880993 0 0.24218496799700481 0.089025544070598317 0 0.22985637510995899 0.1298347970200906 0 0.74999999999999989 0.69999999999999996 0 0.78578450296893509 0.73292684821144505 0 0.75841349681148107 0.75422312624214749 0 0.74999999999934175 0 0 0.78393852574753176 0.032039079577822822 0 0.7527966693318906 0.053051678021508272 0 0 0.60000000000138687 0 0.034381862692950467 0.57372682250960894 0 0.050069554451969707 0.61308520079857043 0 0.2236846579037573 0.67380363126050236 0 0.26439878998046262 0.7048065392091396 0 0.2248999640082178 0.72584299459689172 0 0.6236733212988993 0.14864538214901801 0 0.58516465772821369 0.11653801664834119 0 0.61956000905586006 0.1043312481793135 0 0.26104540868854792 0.81401944968719064 0 0.2792923945214143 0.77665808831789485 0 0.30857225866488791 0.81101973481716805 0 0.42377727103934271 0.25099357235810238 0 0.42905200079338551 0.19982395548231649 0 0.46429753744194407 0.22870891180733599 0 0.27820712747429932 0.65530134213254643 0 0.31502927232353312 0.6134992213375432 0 0.32263089806001177 0.66003674931826484 0 0.61343887413683884 0.856862479058357 0 0.61885627562261258 0.90282959257498208 0 0.5832743223239254 0.88483152652961872 0 0.43698630808430822 0.080423614171545449 0 0.47040171442036788 0.044141676406503738 0 0.47881186583059909 0.093591717165689425 0 0.4367309254023824 0.92065556789053882 0 0.47401147028110507 0.91529957330468115 0 0.47135117303824892 0.95556877749289892 0 0.91696753777131557 0.497780560203536 0 0.95631871884947484 0.51827533208233789 0 0.90900154012161016 0.53607784105648792 0 0.93732437411268477 0.55911392101136159 0 0.90900154012161016 0.53607784105648792 0 0.95631871884947484 0.51827533208233789 0 0.27474541102162192 0.11822029332053539 0 0.25557216766470708 0.15874861286892261 0 0.22985637510995899 0.1298347970200906 0 0.2185883431182947 0.18019736283949719 0 0.22985637510995899 0.1298347970200906 0 0.25557216766470708 0.15874861286892261 0 0.29348325746214782 0.31350119524708198 0 0.33402499257867951 0.28911035184473982 0 0.32752639306529541 0.32610012995269699 0 0.27499999999933927 0.060310814194988557 0 0.32541448401678508 0.046215317981507749 0 0.3096713403101819 0.085471541595262421 0 0.27270076654418179 0.87751467830216623 0 0.24536017905392571 0.90704567837671446 0 0.2401283238295133 0.85648409884788523 0 1 0.44999999999963131 0 1 0.49999999999950101 0 0.96228564064454991 0.48206450662049471 0 0.61343887413683884 0.856862479058357 0 0.66412543161245952 0.88015090885499059 0 0.61885627562261258 0.90282959257498208 0 0 0.45000000000187229 0 0 0.40000000000166441 0 0.035463093262830522 0.42673416072819947 0 0.69999999999999984 0.69999999999999996 0 0.6916490518212759 0.75387992374886192 0 0.66427993341343905 0.73232764502436276 0 0.43846182030517877 0.64845797726506715 0 0.43323420005758778 0.6913544522562407 0 0.3977710372045391 0.65868194622830212 0 0.4367309254023824 0.92065556789053882 0 0.44003836461056539 0.88093474584252718 0 0.47401147028110507 0.91529957330468115 0 0.43846182030517877 0.64845797726506715 0 0.39743091024207589 0.6239520004230239 0 0.43545892161006339 0.61093128915313821 0 0.43846182030517877 0.64845797726506715 0 0.3977710372045391 0.65868194622830212 0 0.39743091024207589 0.6239520004230239 0 0.26429849586623999 0.19346700179430079 0 0.29336099386129338 0.15892013001050981 0 0.31255190597181792 0.19850845631528771 0 0.19670163708476801 0.31472518408333222 0 0.21049769590865089 0.26857363548218488 0 0.24432083401701241 0.3006253385567515 0 0.57724883562309992 0.92155686857100794 0 0.62065498684670595 0.95224934003983619 0 0.57382506491224949 0.9629411906298494 0 0.4409427642593301 0.35743108089689513 0 0.46655310992796922 0.39650496622958609 0 0.42161023666869668 0.39493916313643851 0 0.46666084890304671 0.57634471035397938 0 0.47095389620662098 0.61892551373708504 0 0.43545892161006339 0.61093128915313821 0 0.6879972333610942 0.43038561374960838 0 0.65178832218679827 0.45929119821019959 0 0.63912439215427275 0.41063340167983359 0 0.43698630808430822 0.080423614171545449 0 0.4320097814748517 0.037406712692169303 0 0.47040171442036788 0.044141676406503738 0 0.4367309254023824 0.92065556789053882 0 0.47135117303824892 0.95556877749289892 0 0.4308986359464303 0.96395712492906194 0 0.79680861578988083 0.92656778056766709 0 0.81486180804382891 0.96321394949790495 0 0.770759834363826 0.95919399014344442 0 0.79680861578956375 0.22656778056752541 0 0.81486180804364938 0.26321394949780091 0 0.77075983436335049 0.25919399014334171 0 0.71508799138962864 0.36622814920737751 0 0.68128176404677243 0.38629093627004979 0 0.68887083591306764 0.33632058575757479 0 0.35864735590330371 0.63903383440414463 0 0.32263089806001177 0.66003674931826484 0 0.31502927232353312 0.6134992213375432 0 0.21858834311891909 0.81980263716112767 0 0.2401283238295133 0.85648409884788523 0 0.19741632902693801 0.86755867406447229 0 0.35312867752657662 0.084946736076730367 0 0.32215584939770009 0.1218492143506909 0 0.3096713403101819 0.085471541595262421 0 0.35752321586431363 0.9185439911803448 0 0.35864759629805099 0.87963482415279515 0 0.39767323751400468 0.89584229130535065 0 0.41914690343363781 0.30688979866601612 0 0.4604742573284204 0.27846934318264788 0 0.46226845272279993 0.31901800744800313 0 0.33084213324567391 0.16272720141332131 0 0.32215584939770009 0.1218492143506909 0 0.36246644853392812 0.1399454205365751 0 0.46666084890304671 0.57634471035397938 0 0.42644501560315817 0.54603747078095544 0 0.47793794143994173 0.52940715638744962 0 0 0.60000000000138687 0 0 0.55000000000173355 0 0.034381862692950467 0.57372682250960894 0 0.77354604466818633 0.40378688774472771 0 0.74764719760526988 0.3719647154012321 0 0.78145581580700685 0.34881365920033602 0 0.34999999999912063 0 0 0.3615861437013822 0.03582617922508851 0 0.32541448401678508 0.046215317981507749 0 0.35000000000145642 1 0 0.32544832635163229 0.95485394099568932 0 0.36184234618600131 0.96443954459096326 0 0.57667858002728545 0.078486105337742612 0 0.57396793757665954 0.037011367187645222 0 0.61940220174112337 0.047251958781050582 0 0.47357141910802508 0.1873585799078378 0 0.50760557329222289 0.20700468884612061 0 0.46429753744194407 0.22870891180733599 0 0.49695729691142171 0.25014895411178018 0 0.46429753744194407 0.22870891180733599 0 0.50760557329222289 0.20700468884612061 0 0.33084213324567391 0.16272720141332131 0 0.3572130504031617 0.1874703368446563 0 0.31255190597181792 0.19850845631528771 0 0.6879972333610942 0.43038561374960838 0 0.63912439215427275 0.41063340167983359 0 0.68128176404677243 0.38629093627004979 0 0.65408113592120842 0.073941773121567966 0 0.65290632656860115 0.11434202593454081 0 0.61956000905586006 0.1043312481793135 0 0.33084213324567391 0.16272720141332131 0 0.31255190597181792 0.19850845631528771 0 0.29336099386129338 0.15892013001050981 0 0.61209567303293111 0.44669033081290321 0 0.63912439215427275 0.41063340167983359 0 0.65178832218679827 0.45929119821019959 0 0.086179601630648681 0.64647209519980475 0 0.1024350934457823 0.60772393977513839 0 0.1241190223511371 0.64391885572885044 0 0.44999999999882923 0 0 0.47040171442036788 0.044141676406503738 0 0.4320097814748517 0.037406712692169303 0 0.45000000000187229 1 0 0.4308986359464303 0.96395712492906194 0 0.47135117303824892 0.95556877749289892 0 0.74999999999934175 0 0 0.7527966693318906 0.053051678021508272 0 0.72683645290270404 0.027797073151180601 0 0.74999999999999989 0.69999999999999996 0 0.75841349681148107 0.75422312624214749 0 0.72501250972655151 0.74067302935308721 0 0.69999999999999984 0.69999999999999996 0 0.72501250972655151 0.74067302935308721 0 0.6916490518212759 0.75387992374886192 0 0.74999999999934175 0 0 0.79999999999947335 0 0 0.78393852574753176 0.032039079577822822 0 0.74999999999999989 0.69999999999999996 0 0.79999999999999982 0.69999999999999996 0 0.78578450296893509 0.73292684821144505 0 0.6405463747586706 0.63290524857395714 0 0.5991018319127801 0.62925360607495295 0 0.63065402604362242 0.59661356661633302 0 0.65481233915350323 0.35652751921065562 0 0.68887083591306764 0.33632058575757479 0 0.68128176404677243 0.38629093627004979 0 0.89999999999999991 0.29999999999999999 0 0.94999999999999996 0.29999999999999999 0 0.92012390126144183 0.33123581297173937 0 0.89999999999999991 0.69999999999999996 0 0.92057473616084773 0.66770436535372446 0 0.94999999999999996 0.69999999999999996 0 0.4367309254023824 0.92065556789053882 0 0.39767323751400468 0.89584229130535065 0 0.44003836461056539 0.88093474584252718 0 0.2185883431182947 0.18019736283949719 0 0.18124454140915969 0.18790916706335251 0 0.18652628422869419 0.14162325200928061 0 0.20050006573841939 0.53248514016039872 0 0.19604738184454831 0.47787523520405789 0 0.23975172658309729 0.49475499200540818 0 0.65507451745379841 0.92229208810758578 0 0.61885627562261258 0.90282959257498208 0 0.66412543161245952 0.88015090885499059 0 0.65394964615507722 0.22666784374016369 0 0.67933712972090698 0.25920070958121938 0 0.62657463266645097 0.26524202571255862 0 0.077693244765132896 0.56932317963405099 0 0.034381862692950467 0.57372682250960894 0 0.044576108720083309 0.53509043209532614 0 0.39801143831225599 0.16651381068160659 0 0.38831533174504851 0.2189834941785925 0 0.3572130504031617 0.1874703368446563 0 0.6499999999999998 0.69999999999999996 0 0.69999999999999984 0.69999999999999996 0 0.66427993341343905 0.73232764502436276 0 0.1215415378367805 0.72939333680004137 0 0.15332765547575641 0.71200081858233666 0 0.14335651144331049 0.75565258250209677 0 0.6405463747586706 0.63290524857395714 0 0.63065402604362242 0.59661356661633302 0 0.67529834988829951 0.61613270668143583 0 0.67323294229744413 0.57556450033612505 0 0.67529834988829951 0.61613270668143583 0 0.63065402604362242 0.59661356661633302 0 0.91750694127107502 0.36982372220068471 0 0.87430060258887643 0.34056085888204451 0 0.92012390126144183 0.33123581297173937 0 0.89999999999999991 0.29999999999999999 0 0.92012390126144183 0.33123581297173937 0 0.87430060258887643 0.34056085888204451 0 0.89999999999999991 0.69999999999999996 0 0.87712158428786946 0.65709029563313581 0 0.92057473616084773 0.66770436535372446 0 0.91750694127105259 0.63017627779935648 0 0.92057473616084773 0.66770436535372446 0 0.87712158428786946 0.65709029563313581 0 0.33122374654748771 0.57588941099433744 0 0.29110487519241501 0.56588143995431495 0 0.33190227185843768 0.52715113583864037 0 0.57484956128872922 0.66573805030881994 0 0.5498280205245758 0.6290146943450976 0 0.5991018319127801 0.62925360607495295 0 0.57412547362576272 0.58273804879550706 0 0.5991018319127801 0.62925360607495295 0 0.5498280205245758 0.6290146943450976 0 0.65408113592120842 0.073941773121567966 0 0.66369801598854572 0.036327466368102787 0 0.7010294155333181 0.056779085686491267 0 0.27474541102162192 0.11822029332053539 0 0.32215584939770009 0.1218492143506909 0 0.29336099386129338 0.15892013001050981 0 0.33084213324567391 0.16272720141332131 0 0.29336099386129338 0.15892013001050981 0 0.32215584939770009 0.1218492143506909 0 0.5 0.29999999999999999 0 0.54999999999999993 0.29999999999999999 0 0.52752007115234678 0.33170632466418198 0 0.83573492347052902 0.36590755630746369 0 0.87430060258887643 0.34056085888204451 0 0.86844634540301924 0.38530937474099819 0 0.83758014339878906 0.63222013025741819 0 0.87159648282691515 0.61285406320581504 0 0.87712158428786946 0.65709029563313581 0 0.22278230690790279 0.44824268025881547 0 0.23975172658309729 0.49475499200540818 0 0.19604738184454831 0.47787523520405789 0 1 0.49999999999950101 0 0.95631871884947484 0.51827533208233789 0 0.96228564064454991 0.48206450662049471 0 0.1650278706801647 0.38791388161335733 0 0.13773355295499351 0.42497777642586831 0 0.1117088112799664 0.38831403004970022 0 0.61209567303293111 0.44669033081290321 0 0.57975577671020095 0.46172033326338591 0 0.57744073070774993 0.41535148636609359 0 0.077693244765132896 0.56932317963405099 0 0.1154888278694548 0.56733818459978413 0 0.1024350934457823 0.60772393977513839 0 0.68697391633157634 0.84450604838764298 0 0.65005442820240822 0.82644988530054031 0 0.68024162096458085 0.79868546898116533 0 0.76901770135486491 0.84293557325473656 0 0.77094201086366854 0.79647480515688507 0 0.80041942726660109 0.81543261647703358 0 0.77144070960558853 0.14311854477243749 0 0.76878382444651716 0.097147941686331368 0 0.80076557130237269 0.1154587552654202 0 0.5 0.69999999999999996 0 0.52584555706968406 0.66664215091846768 0 0.54999999999999993 0.69999999999999996 0 0.077693244765132896 0.56932317963405099 0 0.044576108720083309 0.53509043209532614 0 0.085622222639554768 0.53333248912060549 0 0.69999999999921003 0 0 0.72683645290270404 0.027797073151180601 0 0.7010294155333181 0.056779085686491267 0 1 0 0 0.97166519676946894 0.033371144900598393 0 0.94999999999986839 0 0 1 0.69999999999999996 0 0.97166519676947294 0.73337114490064459 0 0.94999999999999996 0.69999999999999996 0 1 0.69999999999999996 0 1 0.74999999999993494 0 0.97166519676947294 0.73337114490064459 0 1 0.29999999999999999 0 0.97166519676951801 0.26662885509932011 0 1 0.24999999999987299 0 1 1 0 0.94999999999979179 1 0 0.97166519676946206 0.96662885509935492 0 1 0 0 1 0.049999999999896842 0 0.97166519676946894 0.033371144900598393 0 1 0.29999999999999999 0 0.94999999999999996 0.29999999999999999 0 0.97166519676951801 0.26662885509932011 0 1 1 0 0.97166519676946206 0.96662885509935492 0 1 0.94999999999997109 0 0 0.55000000000173355 0 0.044576108720083309 0.53509043209532614 0 0.034381862692950467 0.57372682250960894 0 0.6879972333610942 0.43038561374960838 0 0.69385896817107129 0.48377516041410151 0 0.65178832218679827 0.45929119821019959 0 0.33084213324567391 0.16272720141332131 0 0.36246644853392812 0.1399454205365751 0 0.3572130504031617 0.1874703368446563 0 0.65408113592120842 0.073941773121567966 0 0.68330259535470161 0.10038702501083881 0 0.65290632656860115 0.11434202593454081 0 0.16500388252850301 0.66612077714085194 0 0.19068556247388771 0.71028988922845504 0 0.15332765547575641 0.71200081858233666 0 0.82709327591091286 0.84937141670920724 0 0.85600844944837662 0.88483418979512773 0 0.81159157511211755 0.88795995483179491 0 0.82709327591102189 0.14937141670914489 0 0.85600844944842547 0.1848341897950983 0 0.81283102246527783 0.1881007222486438 0 0.79999999999999982 0.29999999999999999 0 0.84999999999999987 0.29999999999999999 0 0.82500000000000062 0.33010209762754811 0 0.79999999999999982 0.69999999999999996 0 0.82457059160610424 0.66831947184359608 0 0.84999999999999987 0.69999999999999996 0 0.59999999999999976 0.69999999999999996 0 0.62460753523532009 0.66851202781000296 0 0.6499999999999998 0.69999999999999996 0 0.39801143831225599 0.16651381068160659 0 0.3572130504031617 0.1874703368446563 0 0.36246644853392812 0.1399454205365751 0 0.69999999999999984 0.29999999999999999 0 0.74999999999999989 0.29999999999999999 0 0.73090396928863699 0.33699297293167962 0 0.69999999999999984 0.69999999999999996 0 0.72500000000000064 0.67022701834392062 0 0.74999999999999989 0.69999999999999996 0 0.6236733212988993 0.14864538214901801 0 0.64011864159029941 0.18789607982138171 0 0.59443395090188023 0.18455690917515069 0 0.20050006573841939 0.53248514016039872 0 0.16618607197337229 0.50652878253548905 0 0.19604738184454831 0.47787523520405789 0 0.79680861578956375 0.22656778056752541 0 0.76587607630038135 0.18880039518954719 0 0.81283102246527783 0.1881007222486438 0 0.79680861578988083 0.92656778056766709 0 0.76891166905518427 0.88835469571185499 0 0.81159157511211755 0.88795995483179491 0 0.71406021706547751 0.63292083137662503 0 0.675261390228442 0.65996937624687813 0 0.67529834988829951 0.61613270668143583 0 0.6405463747586706 0.63290524857395714 0 0.67529834988829951 0.61613270668143583 0 0.675261390228442 0.65996937624687813 0 0.19670163708476801 0.31472518408333222 0 0.168349569971391 0.28054490850913671 0 0.21049769590865089 0.26857363548218488 0 0.47357141910802508 0.1873585799078378 0 0.46429753744194407 0.22870891180733599 0 0.42905200079338551 0.19982395548231649 0 0.59814117807200873 0.23398510860739519 0 0.5794309697024993 0.27124795968204829 0 0.54248833945060504 0.2520322959927106 0 0.6541250972820879 0.49999999999999989 0 0.65178832218679827 0.45929119821019959 0 0.69385896817107129 0.48377516041410151 0 0.54999999999999993 0.29999999999999999 0 0.5794309697024993 0.27124795968204829 0 0.59999999999999976 0.29999999999999999 0 0.7750489929959945 0.66593931409600093 0 0.74994237037456724 0.62775548192980357 0 0.79884539758237771 0.62875045078114233 0 0.77293540622714185 0.59448302402785813 0 0.79884539758237771 0.62875045078114233 0 0.74994237037456724 0.62775548192980357 0 0.14332333627550789 0.14578431753966009 0 0.16141998738593399 0.10404039647458049 0 0.18652628422869419 0.14162325200928061 0 0.38083244760691543 0.38531983672244652 0 0.42161023666869668 0.39493916313643851 0 0.38707855792647411 0.42299362914874578 0 0.43249999999999988 0.43937499999999979 0 0.38707855792647411 0.42299362914874578 0 0.42161023666869668 0.39493916313643851 0 0.43846182030517877 0.64845797726506715 0 0.47095389620662098 0.61892551373708504 0 0.47913475093885149 0.66010775372412711 0 0.50715858906372158 0.63295939104129484 0 0.47913475093885149 0.66010775372412711 0 0.47095389620662098 0.61892551373708504 0 0.69999999999999984 0.69999999999999996 0 0.74999999999999989 0.69999999999999996 0 0.72501250972655151 0.74067302935308721 0 0.4089290844030305 0.58728915500154233 0 0.35765792684946668 0.6000687869219653 0 0.37272913873093971 0.56192925302619479 0 0.69999999999921003 0 0 0.74999999999934175 0 0 0.72683645290270404 0.027797073151180601 0 0.17933913398461551 0.2350063570234002 0 0.21049769590865089 0.26857363548218488 0 0.168349569971391 0.28054490850913671 0 0.14474682429600511 0.85524784522713515 0 0.10562472963403439 0.87143394428979881 0 0.1074251789111534 0.83564394292147814 0 0.14332333627550789 0.14578431753966009 0 0.106902708054812 0.16453234188234539 0 0.1053400320299198 0.12877248826361379 0 0.2236846579037573 0.67380363126050236 0 0.19914261668318661 0.62286739485272158 0 0.2459498854893499 0.63248470766216769 0 0.049999999999899652 0 0 0.053064897599215843 0.048131547304697528 0 0.02576622439977887 0.024532886826226379 0 0 0.050000000000207989 0 0.02576622439977887 0.024532886826226379 0 0.053064897599215843 0.048131547304697528 0 0.050000000000207989 1 0 0.025766224399875661 0.97546711317377799 0 0.053064897599294662 0.95186845269532028 0 0 0.94999999999979179 0 0.053064897599294662 0.95186845269532028 0 0.025766224399875661 0.97546711317377799 0 0.47357141910802508 0.1873585799078378 0 0.48466639505193998 0.1421439844745814 0 0.51729576145820033 0.1683240575987815 0 0.077693244765132896 0.56932317963405099 0 0.085622222639554768 0.53333248912060549 0 0.1154888278694548 0.56733818459978413 0 0.64753070846764316 0.77332939069435502 0 0.63221990677827677 0.73442891067859706 0 0.66427993341343905 0.73232764502436276 0 0.4656888918609538 0.78493261229743638 0 0.42609163930740518 0.80361684430568059 0 0.42676259796334498 0.76772545931379299 0 0.4089290844030305 0.58728915500154233 0 0.39743091024207589 0.6239520004230239 0 0.35765792684946668 0.6000687869219653 0 0.55306006949600994 0.20198184231352201 0 0.50760557329222289 0.20700468884612061 0 0.51729576145820033 0.1683240575987815 0 1 0.8999999999998336 0 1 0.94999999999997109 0 0.97435614836744289 0.92499999999990257 0 1 0.19999999999974799 0 1 0.24999999999987299 0 0.97435614836740092 0.22499999999981049 0 1 0.74999999999993494 0 1 0.7999999999998193 0 0.97435614836745565 0.77499999999987745 0 1 0.049999999999896842 0 1 0.099999999999753911 0 0.97435614836748241 0.074999999999825387 0 0.86411095495256451 0.42388805655111889 0 0.86844634540301924 0.38530937474099819 0 0.90594285160987287 0.4141265964174129 0 0.86956835336234861 0.571283299838105 0 0.91143117093204207 0.58709913730335972 0 0.87159648282691515 0.61285406320581504 0 0 0 0 0.02576622439977887 0.024532886826226379 0 0 0.050000000000207989 0 0 1 0 0 0.94999999999979179 0 0.025766224399875661 0.97546711317377799 0 0 1 0 0.025766224399875661 0.97546711317377799 0 0.050000000000207989 1 0 0 0 0 0.049999999999899652 0 0 0.02576622439977887 0.024532886826226379 0 0.65394964615507722 0.22666784374016369 0 0.64011864159029941 0.18789607982138171 0 0.6865991819015953 0.189116534044597 0 0.25195515620380449 0.25883339815888678 0 0.28040350263641872 0.23054717217092141 0 0.29132859388405002 0.27203693976649962 0 0.61209567303293111 0.44669033081290321 0 0.65178832218679827 0.45929119821019959 0 0.61547661924074692 0.48539576058873962 0 0.6541250972820879 0.49999999999999989 0 0.61547661924074692 0.48539576058873962 0 0.65178832218679827 0.45929119821019959 0 0.19670163708476801 0.31472518408333222 0 0.24432083401701241 0.3006253385567515 0 0.22615676742807109 0.33458786033114157 0 0.15801167086041079 0.46008690540259539 0 0.13773355295499351 0.42497777642586831 0 0.191953871957803 0.42546416763755879 0 0.1650278706801647 0.38791388161335733 0 0.191953871957803 0.42546416763755879 0 0.13773355295499351 0.42497777642586831 0 0.50715858906372158 0.63295939104129484 0 0.52584555706968406 0.66664215091846768 0 0.47913475093885149 0.66010775372412711 0 0.5 0.69999999999999996 0 0.47913475093885149 0.66010775372412711 0 0.52584555706968406 0.66664215091846768 0 0.51076801031701946 0.1202837388510348 0 0.51729576145820033 0.1683240575987815 0 0.48466639505193998 0.1421439844745814 0 0.71406021706547751 0.63292083137662503 0 0.74994237037456724 0.62775548192980357 0 0.72500000000000064 0.67022701834392062 0 0.71508799138962864 0.36622814920737751 0 0.73090396928863699 0.33699297293167962 0 0.74764719760526988 0.3719647154012321 0 0.22278230690790279 0.44824268025881547 0 0.25982634974572738 0.46097799597715272 0 0.23975172658309729 0.49475499200540818 0 0.80185942888539485 0.77452061303608133 0 0.78578450296893509 0.73292684821144505 0 0.81864958914779962 0.73589050177899629 0 0.80185942888501827 0.074520613036224564 0 0.78393852574753176 0.032039079577822822 0 0.81864958914740749 0.035890501779055867 0 0.5 0.29999999999999999 0 0.46226845272279993 0.31901800744800313 0 0.4604742573284204 0.27846934318264788 0 0.6405463747586706 0.63290524857395714 0 0.62460753523532009 0.66851202781000296 0 0.5991018319127801 0.62925360607495295 0 0.79680861578988083 0.92656778056766709 0 0.770759834363826 0.95919399014344442 0 0.75729602384198635 0.92353652857884294 0 0.79680861578956375 0.22656778056752541 0 0.77075983436335049 0.25919399014334171 0 0.75668890529066124 0.2244279804069782 0 0.65394964615507722 0.22666784374016369 0 0.69397719155551807 0.2245125647000914 0 0.67933712972090698 0.25920070958121938 0 0.81973119833356312 0.43505687159469048 0 0.84925632466077294 0.45359738909549091 0 0.81400510706333218 0.47357325943904899 0 0.83758014339878906 0.63222013025741819 0 0.82457059160610424 0.66831947184359608 0 0.79884539758237771 0.62875045078114233 0 0.25676291524611189 0.7436741304886243 0 0.2248999640082178 0.72584299459689172 0 0.26439878998046262 0.7048065392091396 0 0.91696753777131557 0.497780560203536 0 0.90900154012161016 0.53607784105648792 0 0.86907294890112186 0.52008116128001669 0 0.17933913398461551 0.2350063570234002 0 0.168349569971391 0.28054490850913671 0 0.14377654328998779 0.2442024734791064 0 0.1247745017231483 0.27198077544791172 0 0.14377654328998779 0.2442024734791064 0 0.168349569971391 0.28054490850913671 0 0.34258405725730701 0.4444034294386992 0 0.35221190152536241 0.40457127605439203 0 0.38707855792647411 0.42299362914874578 0 0.47357141910802508 0.1873585799078378 0 0.51729576145820033 0.1683240575987815 0 0.50760557329222289 0.20700468884612061 0 0.19670163708476801 0.31472518408333222 0 0.22615676742807109 0.33458786033114157 0 0.18434624290945251 0.35208838264196463 0 0.22033343844674469 0.36963382230740238 0 0.18434624290945251 0.35208838264196463 0 0.22615676742807109 0.33458786033114157 0 0.24432083401701241 0.3006253385567515 0 0.25966125648670141 0.34351016742083729 0 0.22615676742807109 0.33458786033114157 0 0.93814194660195893 0.44426664081746747 0 0.90594285160987287 0.4141265964174129 0 0.95871855522754235 0.40006508612975411 0 0.91750694127107502 0.36982372220068471 0 0.95871855522754235 0.40006508612975411 0 0.90594285160987287 0.4141265964174129 0 0.91750694127105259 0.63017627779935648 0 0.91143117093204207 0.58709913730335972 0 0.95867599106212187 0.60011091146651041 0 0.93732437411268477 0.55911392101136159 0 0.95867599106212187 0.60011091146651041 0 0.91143117093204207 0.58709913730335972 0 0.50715858906372158 0.63295939104129484 0 0.5498280205245758 0.6290146943450976 0 0.52584555706968406 0.66664215091846768 0 0.94399509803918602 0.75600490196082126 0 0.97435614836745565 0.77499999999987745 0 0.95386563387742829 0.80414874155775029 0 0.94399509803922566 0.056004901960802607 0 0.97435614836748241 0.074999999999825387 0 0.95386563387744361 0.1041487415577465 0 0.94399509803921056 0.24399509803922639 0 0.95391631417672862 0.19584263333809451 0 0.97435614836740092 0.22499999999981049 0 0.94399509803919068 0.9439950980391687 0 0.95391631417670719 0.89584263333814784 0 0.97435614836744289 0.92499999999990257 0 0.79680861578988083 0.92656778056766709 0 0.75729602384198635 0.92353652857884294 0 0.76891166905518427 0.88835469571185499 0 0.79680861578956375 0.22656778056752541 0 0.75668890529066124 0.2244279804069782 0 0.76587607630038135 0.18880039518954719 0 0.65394964615507722 0.22666784374016369 0 0.6865991819015953 0.189116534044597 0 0.69397719155551807 0.2245125647000914 0 0.38083244760691543 0.38531983672244652 0 0.38707855792647411 0.42299362914874578 0 0.35221190152536241 0.40457127605439203 0 1 0.7999999999998193 0 0.95386563387742829 0.80414874155775029 0 0.97435614836745565 0.77499999999987745 0 1 0.099999999999753911 0 0.95386563387744361 0.1041487415577465 0 0.97435614836748241 0.074999999999825387 0 1 0.8999999999998336 0 0.97435614836744289 0.92499999999990257 0 0.95391631417670719 0.89584263333814784 0 1 0.19999999999974799 0 0.97435614836740092 0.22499999999981049 0 0.95391631417672862 0.19584263333809451 0 0.84723782639812573 0.48638347960178252 0 0.81400510706333218 0.47357325943904899 0 0.84925632466077294 0.45359738909549091 0 0.54999999999999993 0.29999999999999999 0 0.54248833945060504 0.2520322959927106 0 0.5794309697024993 0.27124795968204829 0 0.94999999999999996 0.29999999999999999 0 0.95780851984364423 0.34215720972155339 0 0.92012390126144183 0.33123581297173937 0 0.94999999999999996 0.69999999999999996 0 0.92057473616084773 0.66770436535372446 0 0.9578014258160763 0.65787212321113708 0 0.15801167086041079 0.46008690540259539 0 0.113541300460994 0.46208784312094731 0 0.13773355295499351 0.42497777642586831 0 0.7250000000005199 0.94981617647078953 0 0.68015064798562208 0.95924320340003011 0 0.68987011941058407 0.92105047536677087 0 0.65507451745379841 0.92229208810758578 0 0.68987011941058407 0.92105047536677087 0 0.68015064798562208 0.95924320340003011 0 0.77846603114747959 0.49850927265137401 0 0.77972660463949339 0.45529290596363098 0 0.81400510706333218 0.47357325943904899 0 0.27866744612395528 0.38416094670951489 0 0.25966125648670141 0.34351016742083729 0 0.29644548887253103 0.34914008784168082 0 0.61209567303293111 0.44669033081290321 0 0.61547661924074692 0.48539576058873962 0 0.57975577671020095 0.46172033326338591 0 0.57611405284611883 0.50165903596042916 0 0.57975577671020095 0.46172033326338591 0 0.61547661924074692 0.48539576058873962 0 0.7250000000005199 0.89375000000045834 0 0.76891166905518427 0.88835469571185499 0 0.75729602384198635 0.92353652857884294 0 0.72500000000001008 0.19776155966387679 0 0.76587607630038135 0.18880039518954719 0 0.75668890529066124 0.2244279804069782 0 0.72500000000001008 0.19776155966387679 0 0.69397719155551807 0.2245125647000914 0 0.6865991819015953 0.189116534044597 0 0.083411279318303222 0.089699755330707398 0 0.12372429750337779 0.095814237875728972 0 0.1053400320299198 0.12877248826361379 0 0.083411279318375747 0.91030024466934134 0 0.10562472963403439 0.87143394428979881 0 0.1241151115713819 0.9045666525468371 0 0.14617343800780541 0.93808063414349496 0 0.1241151115713819 0.9045666525468371 0 0.16206583317966519 0.89685560785156404 0 0.14618258501891079 0.062070108745602003 0 0.16141998738593399 0.10404039647458049 0 0.12372429750337779 0.095814237875728972 0 0.33277555741076909 0.36432196682010132 0 0.35221190152536241 0.40457127605439203 0 0.31778888742534622 0.40581751814196781 0 0.7250000000005199 0.94981617647078953 0 0.75729602384198635 0.92353652857884294 0 0.770759834363826 0.95919399014344442 0 0.72500000000000064 0.2498161764706 0 0.75668890529066124 0.2244279804069782 0 0.77075983436335049 0.25919399014334171 0 0.72500000000000064 0.2498161764706 0 0.67933712972090698 0.25920070958121938 0 0.69397719155551807 0.2245125647000914 0 0.6236733212988993 0.14864538214901801 0 0.61956000905586006 0.1043312481793135 0 0.65290632656860115 0.11434202593454081 0 0.81973119833356312 0.43505687159469048 0 0.81400510706333218 0.47357325943904899 0 0.77972660463949339 0.45529290596363098 0 0.25676291524611189 0.7436741304886243 0 0.29904318922293632 0.74132814928635593 0 0.2792923945214143 0.77665808831789485 0 0.36575549820117997 0.31677992835137742 0 0.32752639306529541 0.32610012995269699 0 0.33402499257867951 0.28911035184473982 0 0.14332333627550789 0.14578431753966009 0 0.18652628422869419 0.14162325200928061 0 0.18124454140915969 0.18790916706335251 0 0.57724883562309992 0.92155686857100794 0 0.5832743223239254 0.88483152652961872 0 0.61885627562261258 0.90282959257498208 0 0.57667858002728545 0.078486105337742612 0 0.61956000905586006 0.1043312481793135 0 0.58516465772821369 0.11653801664834119 0 0.80185942888539485 0.77452061303608133 0 0.80041942726660109 0.81543261647703358 0 0.77094201086366854 0.79647480515688507 0 0.80185942888501827 0.074520613036224564 0 0.80076557130237269 0.1154587552654202 0 0.76878382444651716 0.097147941686331368 0 0.64753070846764316 0.77332939069435502 0 0.68024162096458085 0.79868546898116533 0 0.65005442820240822 0.82644988530054031 0 0.26429849586623999 0.19346700179430079 0 0.25557216766470708 0.15874861286892261 0 0.29336099386129338 0.15892013001050981 0 0.29348325746214782 0.31350119524708198 0 0.29644548887253103 0.34914008784168082 0 0.25966125648670141 0.34351016742083729 0 0.68391457121233579 0.14440470121196541 0 0.65290632656860115 0.11434202593454081 0 0.68330259535470161 0.10038702501083881 0 0.91750694127107502 0.36982372220068471 0 0.92012390126144183 0.33123581297173937 0 0.95780851984364423 0.34215720972155339 0 0.91750694127105259 0.63017627779935648 0 0.9578014258160763 0.65787212321113708 0 0.92057473616084773 0.66770436535372446 0 0.22033343844674469 0.36963382230740238 0 0.22615676742807109 0.33458786033114157 0 0.25966125648670141 0.34351016742083729 0 1 0.94999999999997109 0 0.97166519676946206 0.96662885509935492 0 0.97435614836744289 0.92499999999990257 0 0.94399509803919068 0.9439950980391687 0 0.97435614836744289 0.92499999999990257 0 0.97166519676946206 0.96662885509935492 0 0.94399509803921056 0.24399509803922639 0 0.97435614836740092 0.22499999999981049 0 0.97166519676951801 0.26662885509932011 0 1 0.24999999999987299 0 0.97166519676951801 0.26662885509932011 0 0.97435614836740092 0.22499999999981049 0 1 0.74999999999993494 0 0.97435614836745565 0.77499999999987745 0 0.97166519676947294 0.73337114490064459 0 1 0.049999999999896842 0 0.97435614836748241 0.074999999999825387 0 0.97166519676946894 0.033371144900598393 0 0.94399509803918602 0.75600490196082126 0 0.97166519676947294 0.73337114490064459 0 0.97435614836745565 0.77499999999987745 0 0.94399509803922566 0.056004901960802607 0 0.97166519676946894 0.033371144900598393 0 0.97435614836748241 0.074999999999825387 0 0.77846603114747959 0.49850927265137401 0 0.81400510706333218 0.47357325943904899 0 0.81441713509985358 0.51161854125224959 0 0.77354604466818633 0.40378688774472771 0 0.72622533758026719 0.40265885511101601 0 0.74764719760526988 0.3719647154012321 0 0.71508799138962864 0.36622814920737751 0 0.74764719760526988 0.3719647154012321 0 0.72622533758026719 0.40265885511101601 0 0.84723782639812573 0.48638347960178252 0 0.84925632466077294 0.45359738909549091 0 0.88594198078881503 0.46167788676578442 0 0.86411095495256451 0.42388805655111889 0 0.88594198078881503 0.46167788676578442 0 0.84925632466077294 0.45359738909549091 0 0.43846182030517877 0.64845797726506715 0 0.43545892161006339 0.61093128915313821 0 0.47095389620662098 0.61892551373708504 0 0.33123028043633618 0.77629643437932982 0 0.35642984951668422 0.80994399665655703 0 0.30857225866488791 0.81101973481716805 0 0.33403534827021109 0.84402799729020661 0 0.30857225866488791 0.81101973481716805 0 0.35642984951668422 0.80994399665655703 0 0.26429849586623999 0.19346700179430079 0 0.31255190597181792 0.19850845631528771 0 0.28040350263641872 0.23054717217092141 0 0.57724883562309992 0.92155686857100794 0 0.54783390826260769 0.89287767010860219 0 0.5832743223239254 0.88483152652961872 0 0.55899371797446828 0.85003102233514438 0 0.5832743223239254 0.88483152652961872 0 0.54783390826260769 0.89287767010860219 0 0.4089290844030305 0.58728915500154233 0 0.43545892161006339 0.61093128915313821 0 0.39743091024207589 0.6239520004230239 0 0.77293540622714185 0.59448302402785813 0 0.81723410853263523 0.59419663659258926 0 0.79884539758237771 0.62875045078114233 0 0.83758014339878906 0.63222013025741819 0 0.79884539758237771 0.62875045078114233 0 0.81723410853263523 0.59419663659258926 0 0.35864735590330371 0.63903383440414463 0 0.39743091024207589 0.6239520004230239 0 0.3977710372045391 0.65868194622830212 0 0.56202748619534593 0.15054058349222879 0 0.54979595918804436 0.1060565713905809 0 0.58516465772821369 0.11653801664834119 0 0.57667858002728545 0.078486105337742612 0 0.58516465772821369 0.11653801664834119 0 0.54979595918804436 0.1060565713905809 0 0.33122374654748771 0.57588941099433744 0 0.37272913873093971 0.56192925302619479 0 0.35765792684946668 0.6000687869219653 0 0.35864735590330371 0.63903383440414463 0 0.35765792684946668 0.6000687869219653 0 0.39743091024207589 0.6239520004230239 0 0.71508799138962864 0.36622814920737751 0 0.68887083591306764 0.33632058575757479 0 0.73090396928863699 0.33699297293167962 0 0.29348325746214782 0.31350119524708198 0 0.32752639306529541 0.32610012995269699 0 0.29644548887253103 0.34914008784168082 0 0.33277555741076909 0.36432196682010132 0 0.29644548887253103 0.34914008784168082 0 0.32752639306529541 0.32610012995269699 0 0.34258405725730701 0.4444034294386992 0 0.31778888742534622 0.40581751814196781 0 0.35221190152536241 0.40457127605439203 0 0.79999999999999982 0.69999999999999996 0 0.81864958914779962 0.73589050177899629 0 0.78578450296893509 0.73292684821144505 0 0.79999999999947335 0 0 0.81864958914740749 0.035890501779055867 0 0.78393852574753176 0.032039079577822822 0 0.27474541102162192 0.11822029332053539 0 0.29336099386129338 0.15892013001050981 0 0.25557216766470708 0.15874861286892261 0 0 0.45000000000187229 0 0.035463093262830522 0.42673416072819947 0 0.033550201249889847 0.46247875832467239 0 0.6499999999999998 0.69999999999999996 0 0.66427993341343905 0.73232764502436276 0 0.63221990677827677 0.73442891067859706 0 0.84723782639812573 0.48638347960178252 0 0.81441713509985358 0.51161854125224959 0 0.81400510706333218 0.47357325943904899 0 0.26104540868854792 0.81401944968719064 0 0.30857225866488791 0.81101973481716805 0 0.29209212897034281 0.84715728365233667 0 0.33403534827021109 0.84402799729020661 0 0.29209212897034281 0.84715728365233667 0 0.30857225866488791 0.81101973481716805 0 0.69999999999999984 0.29999999999999999 0 0.73090396928863699 0.33699297293167962 0 0.68887083591306764 0.33632058575757479 0 
</DataArray>
</Points>
<Cells>
<DataArray type="UInt32" Name="connectivity" format="ascii">
0 1 2 3 4 5 6 7 8 9 10 11 12 13 14 15 16 17 18 19 20 21 22 23 24 25 26 27 28 29 30 31 32 33 34 35 36 37 38 39 40 41 42 43 44 45 46 47 48 49 50 51 52 53 54 55 56 57 58 59 60 61 62 63 64 65 66 67 68 69 70 71 72 73 74 75 76 77 78 79 80 81 82 83 84 85 86 87 88 89 90 91 92 93 94 95 96 97 98 99 100 101 102 103 104 105 106 107 108 109 110 111 112 113 114 115 116 117 118 119 120 121 122 123 124 125 126 127 128 129 130 131 132 133 134 135 136 137 138 139 140 141 142 143 144 145 146 147 148 149 150 151 152 153 154 155 156 157 158 159 160 161 162 163 164 165 166 167 168 169 170 171 172 173 174 175 176 177 178 179 180 181 182 183 184 185 186 187 188 189 190 191 192 193 194 195 196 197 198 199 200 201 202 203 204 205 206 207 208 209 210 211 212 213 214 215 216 217 218 219 220 221 222 223 224 225 226 227 228 229 230 231 232 233 234 235 236 237 238 239 240 241 242 243 244 245 246 247 248 249 250 251 252 253 254 255 256 257 258 259 260 261 262 263 264 265 266 267 268 269 270 271 272 273 274 275 276 277 278 279 280 281 282 283 284 285 286 287 288 289 290 291 292 293 294 295 296 297 298 299 300 301 302 303 304 305 306 307 308 309 310 311 312 313 314 315 316 317 318 319 320 321 322 323 324 325 326 327 328 329 330 331 332 333 334 335 336 337 338 339 340 341 342 343 344 345 346 347 348 349 350 351 352 353 354 355 356 357 358 359 360 361 362 363 364 365 366 367 368 369 370 371 372 373 374 375 376 377 378 379 380 381 382 383 384 385 386 387 388 389 390 391 392 393 394 395 396 397 398 399 400 401 402 403 404 405 406 407 408 409 410 411 412 413 414 415 416 417 418 419 420 421 422 423 424 425 426 427 428 429 430 431 432 433 434 435 436 437 438 439 440 441 442 443 444 445 446 447 448 449 450 451 452 453 454 455 456 457 458 459 460 461 462 463 464 465 466 467 468 469 470 471 472 473 474 475 476 477 478 479 480 481 482 483 484 485 486 487 488 489 490 491 492 493 494 495 496 497 498 499 500 501 502 503 504 505 506 507 508 509 510 511 512 513 514 515 516 517 518 519 520 521 522 523 524 525 526 527 528 529 530 531 532 533 534 535 536 537 538 539 540 541 542 543 544 545 546 547 548 549 550 551 552 553 554 555 556 557 558 559 560 561 562 563 564 565 566 567 568 569 570 571 572 573 574 575 576 577 578 579 580 581 582 583 584 585 586 587 588 589 590 591 592 593 594 595 596 597 598 599 600 601 602 603 604 605 606 607 608 609 610 611 612 613 614 615 616 617 618 619 620 621 622 623 624 625 626 627 628 629 630 631 632 633 634 635 636 637 638 639 640 641 642 643 644 645 646 647 648 649 650 651 652 653 654 655 656 657 658 659 660 661 662 663 664 665 666 667 668 669 670 671 672 673 674 675 676 677 678 679 680 681 682 683 684 685 686 687 688 689 690 691 692 693 694 695 696 697 698 699 700 701 702 703 704 705 706 707 708 709 710 711 712 713 714 715 716 717 718 719 720 721 722 723 724 725 726 727 728 729 730 731 732 733 734 735 736 737 738 739 740 741 742 743 744 745 746 747 748 749 750 751 752 753 754 755 756 757 758 759 760 761 762 763 764 765 766 767 768 769 770 771 772 773 774 775 776 777 778 779 780 781 782 783 784 785 786 787 788 789 790 791 792 793 794 795 796 797 798 799 800 801 802 803 804 805 806 807 808 809 810 811 812 813 814 815 816 817 818 819 820 821 822 823 824 825 826 827 828 829 830 831 832 833 834 835 836 837 838 839 840 841 842 843 844 845 846 847 848 849 850 851 852 853 854 855 856 857 858 859 860 861 862 863 864 865 866 867 868 869 870 871 872 873 874 875 876 877 878 879 880 881 882 883 884 885 886 887 888 889 890 891 892 893 894 895 896 897 898 899 900 901 902 903 904 905 906 907 908 909 910 911 912 913 914 915 916 917 918 919 920 921 922 923 924 925 926 927 928 929 930 931 932 933 934 935 936 937 938 939 940 941 942 943 944 945 946 947 948 949 950 951 952 953 954 955 956 957 958 959 960 961 962 963 964 965 966 967 968 969 970 971 972 973 974 975 976 977 978 979 980 981 982 983 984 985 986 987 988 989 990 991 992 993 994 995 996 997 998 999 1000 1001 1002 1003 1004 1005 1006 1007 1008 1009 1010 1011 1012 1013 1014 1015 1016 1017 1018 1019 1020 1021 1022 1023 1024 1025 1026 1027 1028 1029 1030 1031 1032 1033 1034 1035 1036 1037 1038 1039 1040 1041 1042 1043 1044 1045 1046 1047 1048 1049 1050 1051 1052 1053 1054 1055 1056 1057 1058 1059 1060 1061 1062 1063 1064 1065 1066 1067 1068 1069 1070 1071 1072 1073 1074 1075 1076 1077 1078 1079 1080 1081 1082 1083 1084 1085 1086 1087 1088 1089 1090 1091 1092 1093 1094 1095 1096 1097 1098 1099 1100 1101 1102 1103 1104 1105 1106 1107 1108 1109 1110 1111 1112 1113 1114 1115 1116 1117 1118 1119 1120 1121 1122 1123 1124 1125 1126 1127 1128 1129 1130 1131 1132 1133 1134 1135 1136 1137 1138 1139 1140 1141 1142 1143 1144 1145 1146 1147 1148 1149 1150 1151 1152 1153 1154 1155 1156 1157 1158 1159 1160 1161 1162 1163 1164 1165 1166 1167 1168 1169 1170 1171 1172 1173 1174 1175 1176 1177 1178 1179 1180 1181 1182 1183 1184 1185 1186 1187 1188 1189 1190 1191 1192 1193 1194 1195 1196 1197 1198 1199 1200 1201 1202 1203 1204 1205 1206 1207 1208 1209 1210 1211 1212 1213 1214 1215 1216 1217 1218 1219 1220 1221 1222 1223 1224 1225 1226 1227 1228 1229 1230 1231 1232 1233 1234 1235 1236 1237 1238 1239 1240 1241 1242 1243 1244 1245 1246 1247 1248 1249 1250 1251 1252 1253 1254 1255 1256 1257 1258 1259 1260 1261 1262 1263 1264 1265 1266 1267 1268 1269 1270 1271 1272 1273 1274 1275 1276 1277 1278 1279 1280 1281 1282 1283 1284 1285 1286 1287 1288 1289 1290 1291 1292 1293 1294 1295 1296 1297 1298 1299 1300 1301 1302 1303 1304 1305 1306 1307 1308 1309 1310 1311 1312 1313 1314 1315 1316 1317 1318 1319 1320 1321 1322 1323 1324 1325 1326 1327 1328 1329 1330 1331 1332 1333 1334 1335 1336 1337 1338 1339 1340 1341 1342 1343 1344 1345 1346 1347 1348 1349 1350 1351 1352 1353 1354 1355 1356 1357 1358 1359 1360 1361 1362 1363 1364 1365 1366 1367 1368 1369 1370 1371 1372 1373 1374 1375 1376 1377 1378 1379 1380 1381 1382 1383 1384 1385 1386 1387 1388 1389 1390 1391 1392 1393 1394 1395 1396 1397 1398 1399 1400 1401 1402 1403 1404 1405 1406 1407 1408 1409 1410 1411 1412 1413 1414 1415 1416 1417 1418 1419 1420 1421 1422 1423 1424 1425 1426 1427 1428 1429 1430 1431 1432 1433 1434 1435 1436 1437 1438 1439 1440 1441 1442 1443 1444 1445 1446 1447 1448 1449 1450 1451 1452 1453 1454 1455 1456 1457 1458 1459 1460 1461 1462 1463 1464 1465 1466 1467 1468 1469 1470 1471 1472 1473 1474 1475 1476 1477 1478 1479 1480 1481 1482 1483 1484 1485 1486 1487 1488 1489 1490 1491 1492 1493 1494 1495 1496 1497 1498 1499 1500 1501 1502 1503 1504 1505 1506 1507 1508 1509 1510 1511 1512 1513 1514 1515 1516 1517 1518 1519 1520 1521 1522 1523 1524 1525 1526 1527 1528 1529 1530 1531 1532 1533 1534 1535 1536 1537 1538 1539 1540 1541 1542 1543 1544 1545 1546 1547 1548 1549 1550 1551 1552 1553 1554 1555 1556 1557 1558 1559 1560 1561 1562 1563 1564 1565 1566 1567 1568 1569 1570 1571 1572 1573 1574 1575 1576 1577 1578 1579 1580 1581 1582 1583 1584 1585 1586 1587 1588 1589 1590 1591 1592 1593 1594 1595 1596 1597 1598 1599 1600 1601 1602 1603 1604 1605 1606 1607 1608 1609 1610 1611 1612 1613 1614 1615 1616 1617 1618 1619 1620 1621 1622 1623 1624 1625 1626 1627 1628 1629 1630 1631 1632 1633 1634 1635 1636 1637 1638 1639 1640 1641 1642 1643 1644 1645 1646 1647 1648 1649 1650 1651 1652 1653 1654 1655 1656 1657 1658 1659 1660 1661 1662 1663 1664 1665 1666 1667 1668 1669 1670 1671 1672 1673 1674 1675 1676 1677 1678 1679 1680 1681 1682 1683 1684 1685 1686 1687 1688 1689 1690 1691 1692 1693 1694 1695 1696 1697 1698 1699 1700 1701 1702 1703 1704 1705 1706 1707 1708 1709 1710 1711 1712 1713 1714 1715 1716 1717 1718 1719 1720 1721 1722 1723 1724 1725 1726 1727 1728 1729 1730 1731 1732 1733 1734 1735 1736 1737 1738 1739 1740 1741 1742 1743 1744 1745 1746 1747 1748 1749 1750 1751 1752 1753 1754 1755 1756 1757 1758 1759 1760 1761 1762 1763 1764 1765 1766 1767 1768 1769 1770 1771 1772 1773 1774 1775 1776 1777 1778 1779 1780 1781 1782 1783 1784 1785 1786 1787 1788 1789 1790 1791 1792 1793 1794 1795 1796 1797 1798 1799 1800 1801 1802 1803 1804 1805 1806 1807 1808 1809 1810 1811 1812 1813 1814 1815 1816 1817 1818 1819 1820 1821 1822 1823 1824 1825 1826 1827 1828 1829 1830 1831 1832 1833 1834 1835 1836 1837 1838 1839 1840 1841 1842 1843 1844 1845 1846 1847 1848 1849 1850 1851 1852 1853 1854 1855 1856 1857 1858 1859 1860 1861 1862 1863 1864 1865 1866 1867 1868 1869 1870 1871 1872 1873 1874 1875 1876 1877 1878 1879 1880 1881 1882 1883 1884 1885 1886 1887 1888 1889 1890 1891 1892 1893 1894 1895 1896 1897 1898 1899 1900 1901 1902 1903 1904 1905 1906 1907 1908 1909 1910 1911 1912 1913 1914 1915 1916 1917 1918 1919 1920 1921 1922 1923 1924 1925 1926 1927 1928 1929 1930 1931 1932 1933 1934 1935 1936 1937 1938 1939 1940 1941 1942 1943 1944 1945 1946 1947 1948 1949 1950 1951 1952 1953 1954 1955 1956 1957 1958 1959 1960 1961 1962 1963 1964 1965 1966 1967 1968 1969 1970 1971 1972 1973 1974 1975 1976 1977 1978 1979 1980 1981 1982 1983 1984 1985 1986 1987 1988 1989 1990 1991 1992 1993 1994 1995 1996 1997 1998 1999 2000 2001 2002 2003 2004 2005 2006 2007 2008 2009 2010 2011 2012 2013 2014 2015 2016 2017 2018 2019 2020 2021 2022 2023 2024 2025 2026 2027 2028 2029 2030 2031 2032 2033 2034 2035 2036 2037 2038 2039 2040 2041 2042 2043 2044 2045 2046 2047 2048 2049 2050 2051 2052 2053 2054 2055 2056 2057 2058 2059 2060 2061 2062 2063 2064 2065 2066 2067 2068 2069 2070 2071 2072 2073 2074 2075 2076 2077 2078 2079 2080 2081 2082 2083 2084 2085 2086 2087 2088 2089 2090 2091 2092 2093 2094 2095 2096 2097 2098 2099 2100 2101 2102 2103 2104 2105 2106 2107 2108 2109 2110 2111 2112 2113 2114 2115 2116 2117 2118 2119 2120 2121 2122 2123 2124 2125 2126 2127 2128 2129 2130 2131 2132 2133 2134 2135 2136 2137 2138 2139 2140 2141 2142 2143 2144 2145 2146 2147 2148 2149 2150 2151 2152 2153 2154 2155 2156 2157 2158 2159 2160 2161 2162 2163 2164 2165 2166 2167 2168 2169 2170 2171 2172 2173 2174 2175 2176 2177 2178 2179 2180 2181 2182 2183 2184 2185 2186 2187 2188 2189 2190 2191 2192 2193 2194 2195 2196 2197 2198 2199 2200 2201 2202 2203 2204 2205 2206 2207 2208 2209 2210 2211 2212 2213 2214 2215 2216 2217 2218 2219 2220 2221 2222 2223 2224 2225 2226 2227 2228 2229 2230 2231 2232 2233 2234 2235 2236 2237 2238 2239 2240 2241 2242 2243 2244 2245 2246 2247 2248 2249 2250 2251 2252 2253 2254 2255 2256 2257 2258 2259 2260 2261 2262 2263 2264 2265 2266 2267 2268 2269 2270 2271 2272 2273 2274 2275 2276 2277 2278 2279 2280 2281 2282 2283 2284 2285 2286 2287 2288 2289 2290 2291 2292 2293 2294 2295 2296 2297 2298 2299 2300 2301 2302 2303 2304 2305 2306 2307 2308 2309 2310 2311 2312 2313 2314 2315 2316 2317 2318 2319 2320 2321 2322 2323 2324 2325 2326 2327 2328 2329 2330 2331 2332 2333 2334 2335 2336 2337 2338 2339 2340 2341 2342 2343 2344 2345 2346 2347 2348 2349 2350 2351 2352 2353 2354 2355 2356 2357 2358 2359 2360 2361 2362 2363 2364 2365 2366 2367 2368 2369 2370 2371 2372 2373 2374 2375 2376 2377 2378 2379 2380 2381 2382 2383 2384 2385 2386 2387 2388 2389 2390 2391 2392 2393 2394 2395 2396 2397 2398 2399 2400 2401 2402 2403 2404 2405 2406 2407 2408 2409 2410 2411 2412 2413 2414 2415 2416 2417 2418 2419 2420 2421 2422 2423 2424 2425 2426 2427 2428 2429 2430 2431 2432 2433 2434 2435 2436 2437 2438 2439 2440 2441 2442 2443 2444 2445 2446 2447 2448 2449 2450 2451 2452 2453 2454 2455 2456 2457 2458 2459 2460 2461 2462 2463 2464 2465 2466 2467 2468 2469 2470 2471 2472 2473 2474 2475 2476 2477 2478 2479 2480 2481 2482 2483 2484 2485 2486 2487 2488 2489 2490 2491 2492 2493 2494 2495 2496 2497 2498 2499 2500 2501 2502 2503 2504 2505 2506 2507 2508 2509 2510 2511 2512 2513 2514 2515 2516 2517 2518 2519 2520 2521 2522 2523 2524 2525 2526 2527 2528 2529 2530 2531 2532 2533 2534 2535 2536 2537 2538 2539 2540 2541 2542 2543 2544 2545 2546 2547 2548 2549 2550 2551 2552 2553 2554 2555 2556 2557 2558 2559 2560 2561 2562 2563 2564 2565 2566 2567 2568 2569 2570 2571 2572 2573 2574 2575 2576 2577 2578 2579 2580 2581 2582 2583 2584 2585 2586 2587 2588 2589 2590 2591 2592 2593 2594 2595 2596 2597 2598 2599 2600 2601 2602 2603 2604 2605 2606 2607 2608 2609 2610 2611 2612 2613 2614 2615 2616 2617 2618 2619 2620 2621 2622 2623 2624 2625 2626 2627 2628 2629 2630 2631 2632 2633 2634 2635 2636 2637 2638 2639 2640 2641 2642 2643 2644 2645 2646 2647 2648 2649 2650 2651 2652 2653 2654 2655 2656 2657 2658 2659 2660 2661 2662 2663 2664 2665 2666 2667 2668 2669 2670 2671 2672 2673 2674 2675 2676 2677 2678 2679 2680 2681 2682 2683 2684 2685 2686 2687 2688 2689 2690 2691 2692 2693 2694 2695 2696 2697 2698 2699 2700 2701 2702 2703 2704 2705 2706 2707 2708 2709 2710 2711 2712 2713 2714 2715 2716 2717 2718 2719 2720 2721 2722 2723 2724 2725 2726 2727 2728 2729 2730 2731 2732 2733 2734 2735 2736 2737 2738 2739 2740 2741 2742 2743 2744 2745 2746 2747 2748 2749 2750 2751 2752 2753 2754 2755 2756 2757 2758 2759 2760 2761 2762 2763 2764 2765 2766 2767 2768 2769 2770 2771 2772 2773 2774 2775 2776 2777 2778 2779 2780 2781 2782 2783 2784 2785 2786 2787 2788 2789 2790 2791 2792 2793 2794 2795 2796 2797 2798 2799 2800 2801 2802 2803 2804 2805 2806 2807 2808 2809 2810 2811 2812 2813 2814 2815 2816 2817 2818 2819 2820 2821 2822 2823 2824 2825 2826 2827 2828 2829 2830 2831 2832 2833 2834 2835 2836 2837 2838 2839 2840 2841 2842 2843 2844 2845 2846 2847 2848 2849 2850 2851 2852 2853 2854 2855 2856 2857 2858 2859 2860 2861 2862 2863 2864 2865 2866 2867 2868 2869 2870 2871 2872 2873 2874 2875 2876 2877 2878 2879 2880 2881 2882 2883 2884 2885 2886 2887 2888 2889 2890 2891 2892 2893 2894 2895 2896 2897 2898 2899 2900 2901 2902 2903 2904 2905 2906 2907 2908 2909 2910 2911 2912 2913 2914 2915 2916 2917 2918 2919 2920 2921 2922 2923 2924 2925 2926 2927 2928 2929 2930 2931 2932 2933 2934 2935 2936 2937 2938 2939 2940 2941 2942 2943 2944 2945 2946 2947 2948 2949 2950 2951 2952 2953 2954 2955 2956 2957 2958 2959 2960 2961 2962 2963 2964 2965 2966 2967 2968 2969 2970 2971 2972 2973 2974 2975 2976 2977 2978 2979 2980 2981 2982 2983 2984 2985 2986 2987 2988 2989 2990 2991 2992 2993 2994 2995 2996 2997 2998 2999 3000 3001 3002 3003 3004 3005 3006 3007 3008 3009 3010 3011 3012 3013 3014 3015 3016 3017 3018 3019 3020 3021 3022 3023 3024 3025 3026 3027 3028 3029 3030 3031 3032 3033 3034 3035 3036 3037 3038 3039 3040 3041 3042 3043 3044 3045 3046 3047 3048 3049 3050 3051 3052 3053 3054 3055 3056 3057 3058 3059 3060 3061 3062 3063 3064 3065 3066 3067 3068 3069 3070 3071 3072 3073 3074 3075 3076 3077 3078 3079 3080 3081 3082 3083 3084 3085 3086 3087 3088 3089 3090 3091 3092 3093 3094 3095 3096 3097 3098 3099 3100 3101 3102 3103 3104 3105 3106 3107 3108 3109 3110 3111 3112 3113 3114 3115 3116 3117 3118 3119 3120 3121 3122 3123 3124 3125 3126 3127 3128 3129 3130 3131 3132 3133 3134 3135 3136 3137 3138 3139 3140 3141 
</DataArray>
<DataArray type="UInt32" Name="offsets" format="ascii">
2 4 6 8 10 12 14 16 18 20 22 24 26 28 30 32 34 36 38 40 43 46 49 52 55 58 61 64 67 70 73 76 79 82 85 88 91 94 97 100 103 106 109 112 115 118 121 124 127 130 133 136 139 142 145 148 151 154 157 160 163 166 169 172 175 178 181 184 187 190 193 196 199 202 205 208 211 214 217 220 223 226 229 232 235 238 241 244 247 250 253 256 259 262 265 268 271 274 277 280 283 286 289 292 295 298 301 304 307 310 313 316 319 322 325 328 331 334 337 340 343 346 349 352 355 358 361 364 367 370 373 376 379 382 385 388 391 394 397 400 403 406 409 412 415 418 421 424 427 430 433 436 439 442 445 448 451 454 457 460 463 466 469 472 475 478 481 484 487 490 493 496 499 502 505 508 511 514 517 520 523 526 529 532 535 538 541 544 547 550 553 556 559 562 565 568 571 574 577 580 583 586 589 592 595 598 601 604 607 610 613 616 619 622 625 628 631 634 637 640 643 646 649 652 655 658 661 664 667 670 673 676 679 682 685 688 691 694 697 700 703 706 709 712 715 718 721 724 727 730 733 736 739 742 745 748 751 754 757 760 763 766 769 772 775 778 781 784 787 790 793 796 799 802 805 808 811 814 817 820 823 826 829 832 835 838 841 844 847 850 853 856 859 862 865 868 871 874 877 880 883 886 889 892 895 898 901 904 907 910 913 916 919 922 925 928 931 934 937 940 943 946 949 952 955 958 961 964 967 970 973 976 979 982 985 988 991 994 997 1000 1003 1006 1009 1012 1015 1018 1021 1024 1027 1030 1033 1036 1039 1042 1045 1048 1051 1054 1057 1060 1063 1066 1069 1072 1075 1078 1081 1084 1087 1090 1093 1096 1099 1102 1105 1108 1111 1114 1117 1120 1123 1126 1129 1132 1135 1138 1141 1144 1147 1150 1153 1156 1159 1162 1165 1168 1171 1174 1177 1180 1183 1186 1189 1192 1195 1198 1201 1204 1207 1210 1213 1216 1219 1222 1225 1228 1231 1234 1237 1240 1243 1246 1249 1252 1255 1258 1261 1264 1267 1270 1273 1276 1279 1282 1285 1288 1291 1294 1297 1300 1303 1306 1309 1312 1315 1318 1321 1324 1327 1330 1333 1336 1339 1342 1345 1348 1351 1354 1357 1360 1363 1366 1369 1372 1375 1378 1381 1384 1387 1390 1393 1396 1399 1402 1405 1408 1411 1414 1417 1420 1423 1426 1429 1432 1435 1438 1441 1444 1447 1450 1453 1456 1459 1462 1465 1468 1471 1474 1477 1480 1483 1486 1489 1492 1495 1498 1501 1504 1507 1510 1513 1516 1519 1522 1525 1528 1531 1534 1537 1540 1543 1546 1549 1552 1555 1558 1561 1564 1567 1570 1573 1576 1579 1582 1585 1588 1591 1594 1597 1600 1603 1606 1609 1612 1615 1618 1621 1624 1627 1630 1633 1636 1639 1642 1645 1648 1651 1654 1657 1660 1663 1666 1669 1672 1675 1678 1681 1684 1687 1690 1693 1696 1699 1702 1705 1708 1711 1714 1717 1720 1723 1726 1729 1732 1735 1738 1741 1744 1747 1750 1753 1756 1759 1762 1765 1768 1771 1774 1777 1780 1783 1786 1789 1792 1795 1798 1801 1804 1807 1810 1813 1816 1819 1822 1825 1828 1831 1834 1837 1840 1843 1846 1849 1852 1855 1858 1861 1864 1867 1870 1873 1876 1879 1882 1885 1888 1891 1894 1897 1900 1903 1906 1909 1912 1915 1918 1921 1924 1927 1930 1933 1936 1939 1942 1945 1948 1951 1954 1957 1960 1963 1966 1969 1972 1975 1978 1981 1984 1987 1990 1993 1996 1999 2002 2005 2008 2011 2014 2017 2020 2023 2026 2029 2032 2035 2038 2041 2044 2047 2050 2053 2056 2059 2062 2065 2068 2071 2074 2077 2080 2083 2086 2089 2092 2095 2098 2101 2104 2107 2110 2113 2116 2119 2122 2125 2128 2131 2134 2137 2140 2143 2146 2149 2152 2155 2158 2161 2164 2167 2170 2173 2176 2179 2182 2185 2188 2191 2194 2197 2200 2203 2206 2209 2212 2215 2218 2221 2224 2227 2230 2233 2236 2239 2242 2245 2248 2251 2254 2257 2260 2263 2266 2269 2272 2275 2278 2281 2284 2287 2290 2293 2296 2299 2302 2305 2308 2311 2314 2317 2320 2323 2326 2329 2332 2335 2338 2341 2344 2347 2350 2353 2356 2359 2362 2365 2368 2371 2374 2377 2380 2383 2386 2389 2392 2395 2398 2401 2404 2407 2410 2413 2416 2419 2422 2425 2428 2431 2434 2437 2440 2443 2446 2449 2452 2455 2458 2461 2464 2467 2470 2473 2476 2479 2482 2485 2488 2491 2494 2497 2500 2503 2506 2509 2512 2515 2518 2521 2524 2527 2530 2533 2536 2539 2542 2545 2548 2551 2554 2557 2560 2563 2566 2569 2572 2575 2578 2581 2584 2587 2590 2593 2596 2599 2602 2605 2608 2611 2614 2617 2620 2623 2626 2629 2632 2635 2638 2641 2644 2647 2650 2653 2656 2659 2662 2665 2668 2671 2674 2677 2680 2683 2686 2689 2692 2695 2698 2701 2704 2707 2710 2713 2716 2719 2722 2725 2728 2731 2734 2737 2740 2743 2746 2749 2752 2755 2758 2761 2764 2767 2770 2773 2776 2779 2782 2785 2788 2791 2794 2797 2800 2803 2806 2809 2812 2815 2818 2821 2824 2827 2830 2833 2836 2839 2842 2845 2848 2851 2854 2857 2860 2863 2866 2869 2872 2875 2878 2881 2884 2887 2890 2893 2896 2899 2902 2905 2908 2911 2914 2917 2920 2923 2926 2929 2932 2935 2938 2941 2944 2947 2950 2953 2956 2959 2962 2965 2968 2971 2974 2977 2980 2983 2986 2989 2992 2995 2998 3001 3004 3007 3010 3013 3016 3019 3022 3025 3028 3031 3034 3037 3040 3043 3046 3049 3052 3055 3058 3061 3064 3067 3070 3073 3076 3079 3082 3085 3088 3091 3094 3097 3100 3103 3106 3109 3112 3115 3118 3121 3124 3127 3130 3133 3136 3139 3142 
</DataArray>
<DataArray type="UInt32" Name="types" format="ascii">
3 3 3 3 3 3 3 3 3 3 3 3 3 3 3 3 3 3 3 3 5 5 5 5 5 5 5 5 5 5 5 5 5 5 5 5 5 5 5 5 5 5 5 5 5 5 5 5 5 5 5 5 5 5 5 5 5 5 5 5 5 5 5 5 5 5 5 5 5 5 5 5 5 5 5 5 5 5 5 5 5 5 5 5 5 5 5 5 5 5 5 5 5 5 5 5 5 5 5 5 5 5 5 5 5 5 5 5 5 5 5 5 5 5 5 5 5 5 5 5 5 5 5 5 5 5 5 5 5 5 5 5 5 5 5 5 5 5 5 5 5 5 5 5 5 5 5 5 5 5 5 5 5 5 5 5 5 5 5 5 5 5 5 5 5 5 5 5 5 5 5 5 5 5 5 5 5 5 5 5 5 5 5 5 5 5 5 5 5 5 5 5 5 5 5 5 5 5 5 5 5 5 5 5 5 5 5 5 5 5 5 5 5 5 5 5 5 5 5 5 5 5 5 5 5 5 5 5 5 5 5 5 5 5 5 5 5 5 5 5 5 5 5 5 5 5 5 5 5 5 5 5 5 5 5 5 5 5 5 5 5 5 5 5 5 5 5 5 5 5 5 5 5 5 5 5 5 5 5 5 5 5 5 5 5 5 5 5 5 5 5 5 5 5 5 5 5 5 5 5 5 5 5 5 5 5 5 5 5 5 5 5 5 5 5 5 5 5 5 5 5 5 5 5 5 5 5 5 5 5 5 5 5 5 5 5 5 5 5 5 5 5 5 5 5 5 5 5 5 5 5 5 5 5 5 5 5 5 5 5 5 5 5 5 5 5 5 5 5 5 5 5 5 5 5 5 5 5 5 5 5 5 5 5 5 5 5 5 5 5 5 5 5 5 5 5 5 5 5 5 5 5 5 5 5 5 5 5 5 5 5 5 5 5 5 5 5 5 5 5 5 5 5 5 5 5 5 5 5 5 5 5 5 5 5 5 5 5 5 5 5 5 5 5 5 5 5 5 5 5 5 5 5 5 5 5 5 5 5 5 5 5 5 5 5 5 5 5 5 5 5 5 5 5 5 5 5 5 5 5 5 5 5 5 5 5 5 5 5 5 5 5 5 5 5 5 5 5 5 5 5 5 5 5 5 5 5 5 5 5 5 5 5 5 5 5 5 5 5 5 5 5 5 5 5 5 5 5 5 5 5 5 5 5 5 5 5 5 5 5 5 5 5 5 5 5 5 5 5 5 5 5 5 5 5 5 5 5 5 5 5 5 5 5 5 5 5 5 5 5 5 5 5 5 5 5 5 5 5 5 5 5 5 5 5 5 5 5 5 5 5 5 5 5 5 5 5 5 5 5 5 5 5 5 5 5 5 5 5 5 5 5 5 5 5 5 5 5 5 5 5 5 5 5 5 5 5 5 5 5 5 5 5 5 5 5 5 5 5 5 5 5 5 5 5 5 5 5 5 5 5 5 5 5 5 5 5 5 5 5 5 5 5 5 5 5 5 5 5 5 5 5 5 5 5 5 5 5 5 5 5 5 5 5 5 5 5 5 5 5 5 5 5 5 5 5 5 5 5 5 5 5 5 5 5 5 5 5 5 5 5 5 5 5 5 5 5 5 5 5 5 5 5 5 5 5 5 5 5 5 5 5 5 5 5 5 5 5 5 5 5 5 5 5 5 5 5 5 5 5 5 5 5 5 5 5 5 5 5 5 5 5 5 5 5 5 5 5 5 5 5 5 5 5 5 5 5 5 5 5 5 5 5 5 5 5 5 5 5 5 5 5 5 5 5 5 5 5 5 5 5 5 5 5 5 5 5 5 5 5 5 5 5 5 5 5 5 5 5 5 5 5 5 5 5 5 5 5 5 5 5 5 5 5 5 5 5 5 5 5 5 5 5 5 5 5 5 5 5 5 5 5 5 5 5 5 5 5 5 5 5 5 5 5 5 5 5 5 5 5 5 5 5 5 5 5 5 5 5 5 5 5 5 5 5 5 5 5 5 5 5 5 5 5 5 5 5 5 5 5 5 5 5 5 5 5 5 5 5 5 5 5 5 5 5 5 5 5 5 5 5 5 5 5 5 5 5 5 5 5 5 5 5 5 5 5 5 5 5 5 5 5 5 5 5 5 5 5 5 5 5 5 5 5 5 5 5 5 5 5 5 5 5 5 5 5 5 5 5 5 5 5 5 5 5 5 5 5 5 5 5 5 5 5 5 5 5 5 5 5 5 5 5 5 5 5 5 5 5 5 5 5 5 5 5 5 5 5 5 5 5 5 5 5 5 5 5 5 5 5 5 5 5 5 5 5 5 5 5 5 5 5 5 5 5 5 5 5 5 5 5 5 5 5 5 5 5 5 5 5 5 5 5 5 
</DataArray>
</Cells>
<PointData Scalars="" Vectors="displacement," Tensors="">
<DataArray type="Float64" Name="displacement" NumberOfComponents="3" format="ascii">
-6.1483564614589375e-06 -8.1631852096806774e-06 0 -6.6003333383059362e-06 -1.161570094163055e-05 0 -6.6003333383059362e-06 -1.161570094163055e-05 0 -7.1092788187984877e-06 -1.5770844028362226e-05 0 -7.1092788187984877e-06 -1.5770844028362226e-05 0 -7.7483068248762693e-06 -2.0637077127610565e-05 0 -7.7483068248762693e-06 -2.0637077127610565e-05 0 -8.3336464140544652e-06 -2.5813358312718782e-05 0 -8.3336464140544652e-06 -2.5813358312718782e-05 0 -8.8464677390675618e-06 -3.1111963514662032e-05 0 -8.8464677390675618e-06 -3.1111963514662032e-05 0 -9.3428674505903636e-06 -3.6582263744846854e-05 0 -9.3428674505903636e-06 -3.6582263744846854e-05 0 -9.9383769295543975e-06 -4.1440627670529799e-05 0 -9.9383769295543975e-06 -4.1440627670529799e-05 0 -1.0617998408709611e-05 -4.7294062398869639e-05 0 -1.0617998408709611e-05 -4.7294062398869639e-05 0 -1.0988631880535511e-05 -5.0708834376109426e-05 0 -1.0988631880535511e-05 -5.0708834376109426e-05 0 -1.2794301839300981e-05 -5.610146149095466e-05 0 6.3126655454704857e-06 1.2246800204219877e-05 0 9.0048559384201936e-06 1.9471021658276721e-05 0 9.0048559384201936e-06 1.9471021658276721e-05 0 9.3737244598699372e-06 2.3036270538929781e-05 0 9.3737244598699372e-06 2.3036270538929781e-05 0 9.6181772753827279e-06 3.0403921256825326e-05 0 9.6181772753827279e-06 3.0403921256825326e-05 0 9.6153815501015809e-06 3.6635227670758376e-05 0 9.6153815501015809e-06 3.6635227670758376e-05 0 9.3761071642681139e-06 4.3774551413491634e-05 0 9.3761071642681139e-06 4.3774551413491634e-05 0 8.8740051441102474e-06 5.1852062525417655e-05 0 8.8740051441102474e-06 5.1852062525417655e-05 0 8.1339138677457191e-06 5.7324200614258978e-05 0 8.1339138677457191e-06 5.7324200614258978e-05 0 6.4339756969852785e-06 6.777265310599359e-05 0 6.4339756969852785e-06 6.777265310599359e-05 0 7.4588602713124622e-06 7.0402875841916782e-05 0 7.4588602713124622e-06 7.0402875841916782e-05 0 -3.028537971102965e-06 8.0875272303899875e-05 0 -4.9086250680530079e-06 -2.7362329897780729e-06 0 -3.4575571492859914e-06 -5.8437913924035322e-07 0 -4.7638566716763714e-06 -2.1810259970285536e-06 0 -4.0321651383737114e-06 -1.3488289602268464e-06 0 -3.4575571492859914e-06 -5.8437913924035322e-07 0 -4.9086250680530079e-06 -2.7362329897780729e-06 0 -9.7122679658393028e-06 -6.6121675802675063e-06 0 -7.9741377250375024e-06 -4.6081740302973257e-06 0 -8.6080108708824087e-06 -6.2207690609155899e-06 0 -8.6080108708824087e-06 -6.2207690609155899e-06 0 -7.9741377250375024e-06 -4.6081740302973257e-06 0 -7.3344739796813664e-06 -5.3908899349225752e-06 0 -6.2078691027905954e-06 1.5066900812169542e-06 0 -2.7289247327281334e-06 2.3704510294468215e-07 0 -5.7141158305256179e-06 5.9218779997747975e-07 0 -4.352911735855678e-06 -1.3649451818903849e-06 0 -4.018739083690739e-06 -7.5608589390020811e-07 0 -1.9407887265860791e-06 -3.6818254267125203e-07 0 -3.1152990679058125e-06 1.1852062358223362e-06 0 -2.7289247327281334e-06 2.3704510294468215e-07 0 -6.2078691027905954e-06 1.5066900812169542e-06 0 -2.2379256330771633e-06 -1.0102240255171412e-06 0 -4.352911735855678e-06 -1.3649451818903849e-06 0 -1.9407887265860791e-06 -3.6818254267125203e-07 0 -1.1698847050389782e-05 -3.0649303533940897e-06 0 -1.4477732244169083e-05 -4.25558694781183e-06 0 -1.1301712083947313e-05 -2.5585534679939756e-06 0 -2.2645496256762972e-05 6.3082198563326782e-06 0 -1.7808053088215867e-05 4.083736641406518e-06 0 -1.7365276964833721e-05 3.6485798617148172e-06 0 -2.0031580979843139e-07 3.2184546293564412e-07 0 -2.0552243296904157e-07 7.0819024737483552e-07 0 -7.1638089798492439e-07 -4.6333709897765846e-08 0 -7.4837704088438577e-07 7.5630385749085811e-07 0 -7.163808979849245e-07 -4.633370989776584e-08 0 -2.0552243296904157e-07 7.0819024737483552e-07 0 -1.9951091569178923e-06 8.1183665682388437e-07 0 -2.571870556997988e-06 7.482257065804313e-07 0 -1.5550375946646434e-06 9.2769851226124807e-07 0 -8.7685716648749511e-10 -3.7464754762375959e-10 0 -5.9383907956657868e-10 -2.5355569790690603e-10 0 -6.7469201772093581e-07 -6.2179618832988065e-07 0 -6.6563532668605863e-10 2.4046120980642834e-10 0 -8.5844468227060897e-10 2.5633654860596658e-10 0 -7.6433032758904644e-07 5.4503242056761154e-07 0 -1.18096684339719e-05 -8.9916278314478385e-06 0 -1.1528382177585371e-05 -9.1131686070908023e-06 0 -9.7122679658393028e-06 -6.6121675802675063e-06 0 5.5930434658575456e-06 1.3766485716258624e-05 0 2.0018563119350747e-06 8.9071894477270621e-06 0 1.7204287821688925e-06 9.6103785537985013e-06 0 -2.2773027222433235e-05 -8.768322058990983e-05 0 -1.7307582973749473e-05 -8.1774896665953557e-05 0 -2.2928001772297069e-05 -7.8767089668495407e-05 0 -2.772397954275812e-05 0.00018854870251247297 0 -4.1608205010471021e-05 0.00017370990609997622 0 -2.7946941867717455e-05 0.00016863125363785224 0 -2.772397954275812e-05 0.00018854870251247297 0 -2.7946941867717455e-05 0.00016863125363785224 0 -1.459470606624626e-05 0.0001747667935516068 0 -2.2773027222433235e-05 -8.768322058990983e-05 0 -2.2928001772297069e-05 -7.8767089668495407e-05 0 -2.8810620523146576e-05 -8.0944301119877029e-05 0 -4.407788844547621e-05 0.00015712994927273544 0 -2.6844660107731045e-05 0.00014947810441952081 0 -2.7946941867717455e-05 0.00016863125363785224 0 -1.6251976299829064e-05 -7.3893379161488019e-05 0 -2.3160546672028329e-05 -6.9700863020583613e-05 0 -2.2928001772297069e-05 -7.8767089668495407e-05 0 -1.9951091569178923e-06 8.1183665682388437e-07 0 -1.5550375946646434e-06 9.2769851226124807e-07 0 -1.2260120843974107e-06 8.0915191954023993e-07 0 5.5930434658575456e-06 1.3766485716258624e-05 0 -3.1594678836462462e-07 1.185726599213983e-05 0 2.0018563119350747e-06 8.9071894477270621e-06 0 -5.3824890085145994e-05 4.2019820436522355e-05 0 -4.7725292178138178e-05 3.0653404252757299e-05 0 -3.7749149082907295e-05 3.2889541032735902e-05 0 -2.7890794424796162e-05 -1.5427524246676414e-05 0 -3.1167647697607131e-05 -2.0437159673489248e-05 0 -2.3807960429670355e-05 -1.6439637854560318e-05 0 -9.5520417626766411e-06 -7.0540972446306233e-06 0 -1.18096684339719e-05 -8.9916278314478385e-06 0 -9.7122679658393028e-06 -6.6121675802675063e-06 0 -2.4466000269525649e-05 2.6453665300661102e-05 0 -2.1079232241850086e-05 1.5567007336411476e-05 0 -1.5960724771431201e-05 1.6785816781586027e-05 0 -1.1400240939941121e-05 4.4579060504971218e-06 0 -1.6310072983212418e-05 6.8029161804200254e-06 0 -1.5558174181985715e-05 3.9491523504651663e-06 0 -4.5567860971103269e-06 -5.5853702078429297e-07 0 -3.7916291740411967e-06 1.2668621150857117e-06 0 -5.7514881540251543e-06 -1.9192952252360528e-06 0 -2.23320969752436e-05 -6.0519405408452768e-05 0 -1.7380318067289019e-05 -5.7898395521727851e-05 0 -2.2334916773732714e-05 -5.0943815602561139e-05 0 -2.7114149520213388e-05 0.00013023180147227434 0 -3.813835489745991e-05 0.00012468923675843644 0 -2.4402639434829567e-05 0.00010922796998044308 0 -2.2334916773732714e-05 -5.0943815602561139e-05 0 -1.7380318067289019e-05 -5.7898395521727851e-05 0 -1.6639063668892879e-05 -4.9673286387473337e-05 0 -2.4402639434829567e-05 0.00010922796998044308 0 -3.813835489745991e-05 0.00012468923675843644 0 -3.7349270714131421e-05 0.00010938639598577803 0 -1.1400240939941121e-05 4.4579060504971218e-06 0 -1.5558174181985715e-05 3.9491523504651663e-06 0 -1.0143278748857422e-05 2.4645642487067783e-06 0 -4.2316587713449619e-06 -2.7489324686101662e-06 0 -2.6971763245921309e-06 2.2631588138126521e-06 0 -4.5567860971103269e-06 -5.5853702078429297e-07 0 -2.4466000269525649e-05 2.6453665300661102e-05 0 -2.9060297744657732e-05 2.2455802714612568e-05 0 -2.1079232241850089e-05 1.5567007336411476e-05 0 5.5930434658575456e-06 1.3766485716258624e-05 0 1.2095754163484656e-05 3.5013558978638934e-05 0 3.4266439764541231e-07 3.5880833242847328e-05 0 -1.6076751654170146e-05 -2.277748474471757e-05 0 -1.4283657460979571e-05 -2.245837607586069e-05 0 -1.661824757511148e-05 -2.1567861647346286e-05 0 -4.5515454045959007e-06 -3.1024547695853507e-05 0 -4.4188506178323768e-06 -2.8869803159296541e-05 0 -6.467222263986998e-06 -2.831968885292381e-05 0 -2.0405495324523045e-06 3.8066963408209704e-06 0 -3.7916291740411967e-06 1.2668621150857117e-06 0 -4.5567860971103269e-06 -5.5853702078429297e-07 0 -4.3894443006746567e-06 -8.0429196692405065e-05 0 -9.9868760958958274e-06 -7.2820220356151848e-05 0 -1.1584311685260419e-05 -8.0543470504308967e-05 0 -7.4693347602739586e-05 0.00017219427830588414 0 -5.9588444309473171e-05 0.00015530592621168529 0 -5.6618879376758558e-05 0.00017022368515604748 0 -4.1101398086978962e-10 -1.9662745928386844e-10 0 -2.2350573189210272e-07 -1.7414775734771023e-07 0 -3.6152566951500815e-07 -3.8839068080399857e-07 0 -5.3169751049471988e-10 2.4717270301393474e-10 0 -5.3586058144335915e-07 5.1064922577496006e-07 0 -4.1282032361275943e-07 5.146158294261905e-07 0 -2.4466000269525649e-05 2.6453665300661102e-05 0 -1.5264731000885862e-05 2.5381045161941332e-05 0 -2.1698826480442415e-05 3.9586743697717711e-05 0 -1.0010609163048875e-05 3.4930384819939389e-05 0 -2.1698826480442415e-05 3.9586743697717711e-05 0 -1.5264731000885859e-05 2.5381045161941332e-05 0 -2.843578065800841e-06 2.1829783630108581e-05 0 5.5930434658575456e-06 1.3766485716258624e-05 0 3.4266439764541231e-07 3.5880833242847328e-05 0 -7.414654710862852e-05 0.00013864544041068496 0 -5.3230789480981698e-05 0.00013900340673176135 0 -5.9588444309473171e-05 0.00015530592621168529 0 -2.6597975963785281e-06 -6.2758860826737012e-05 0 -1.1872371527797469e-05 -6.452783416149258e-05 0 -9.9868760958958257e-06 -7.2820220356151848e-05 0 -7.5827413456850292e-06 -2.2333764921936912e-05 0 -8.1662579869751136e-06 -1.9593818986267045e-05 0 -9.5596115326589991e-06 -2.1549776133683357e-05 0 -5.1082854488280183e-06 -6.3445754003800663e-07 0 -5.7514881540251543e-06 -1.9192952252360528e-06 0 -3.7916291740411967e-06 1.2668621150857117e-06 0 -6.8362388813244744e-06 -4.413853384848852e-06 0 -7.9374445295552933e-06 -6.9641345215941904e-06 0 -6.2426178013024118e-06 -6.6293899605361926e-06 0 -2.7887884316731235e-06 -1.2102288868327698e-05 0 -3.2548482622441997e-06 -9.8800534854723193e-06 0 -5.5430981519911896e-06 -1.2780702153119743e-05 0 -6.4538318935477838e-05 7.0595593308450436e-05 0 -4.8497485173268369e-05 6.018183103266146e-05 0 -5.445098665949126e-05 7.9406388025545036e-05 0 -4.3275199541006746e-05 -6.4708665601033129e-05 0 -3.6843980619853873e-05 -7.261277612981561e-05 0 -3.4359169072064835e-05 -6.5348437411281564e-05 0 1.8188082167998614e-05 0.00013601119172518055 0 2.814480853445991e-06 0.00015624016592521436 0 -1.2246892977995107e-06 0.00014009276635410531 0 -3.4416188918334845e-06 -7.1331138050374529e-05 0 -9.9868760958958257e-06 -7.2820220356151848e-05 0 -4.3894443006746567e-06 -8.0429196692405065e-05 0 -7.4693347602739586e-05 0.00017219427830588414 0 -7.4596352315128367e-05 0.00015566082289001666 0 -5.9588444309473171e-05 0.00015530592621168529 0 -1.3296063759525282e-05 -2.0004136802331731e-05 0 -1.3778710849640333e-05 -1.8020839073453469e-05 0 -1.4777988197156534e-05 -1.9949127211502137e-05 0 -6.2447312018101045e-06 -8.2122374759221483e-06 0 -8.2443748517569321e-06 -9.9071048855974507e-06 0 -8.3703023998277867e-06 -1.4981168028424143e-05 0 -1.3296063759525282e-05 -2.0004136802331731e-05 0 -1.2491135201493343e-05 -1.8313811096391978e-05 0 -1.3778710849640333e-05 -1.8020839073453469e-05 0 -5.3146743462948835e-06 -9.9575883035150881e-06 0 -5.5430981519911896e-06 -1.2780702153119743e-05 0 -3.2548482622441997e-06 -9.8800534854723193e-06 0 -1.8763206920369128e-05 -2.7304073613214447e-05 0 -2.0517426441382268e-05 -3.6430033581407737e-05 0 -1.4944151813452053e-05 -2.9288919887448774e-05 0 -1.4650429266573923e-09 1.7388398536188763e-10 0 -1.9407887265860791e-06 -3.6818254267125203e-07 0 -1.3507283998984744e-06 6.0721005684235197e-08 0 -2.1026195903289627e-09 -3.562358290270534e-10 0 -1.8299974582321869e-06 -3.2766485867896896e-07 0 -2.7289247327281334e-06 2.3704510294468215e-07 0 -1.6076751654170146e-05 -2.277748474471757e-05 0 -1.3888614127923099e-05 -2.4053039035865061e-05 0 -1.4283657460979571e-05 -2.245837607586069e-05 0 -6.1067846117728429e-06 -2.994241117454691e-05 0 -4.5515454045959007e-06 -3.1024547695853507e-05 0 -6.467222263986998e-06 -2.831968885292381e-05 0 -1.4834693542432869e-09 -5.4731249994054817e-10 0 -2.3028251444944042e-06 -6.9697684306833631e-07 0 -1.8299974582321867e-06 -3.2766485867896907e-07 0 -1.1736913908570235e-09 2.8854808657367886e-10 0 -1.3507283998984744e-06 6.0721005684235197e-08 0 -1.8125593226003084e-06 3.0316929331155583e-07 0 -7.1638089798492439e-07 -4.6333709897765846e-08 0 -8.8224599472044523e-07 -6.3499406502583792e-07 0 -4.8633865442753643e-07 -1.6691412381533071e-07 0 -6.5969067088654446e-06 -1.7108371749300705e-06 0 -5.6161140544497388e-06 -7.9836727165251471e-07 0 -4.018739083690739e-06 -7.5608589390020811e-07 0 -9.6253345087326592e-06 1.9154900556445558e-06 0 -5.7141158305256188e-06 5.9218779997747975e-07 0 -7.9824122071282966e-06 5.6614682042516636e-07 0 -8.0070819063348179e-06 -1.2744348552876557e-05 0 -7.1012335251144954e-06 -1.0274822107733006e-05 0 -9.1690165518321669e-06 -1.1598069192358801e-05 0 -8.0747544705124774e-06 -9.1114755511449001e-06 0 -6.2426178013024118e-06 -6.6293899605361926e-06 0 -7.9374445295552933e-06 -6.9641345215941904e-06 0 1.605676151471222e-05 0.00017168038575666127 0 -7.6403563844027249e-07 0.00017175112732089383 0 2.814480853445991e-06 0.00015624016592521436 0 -4.3630599758705083e-05 -8.0207754637100218e-05 0 -3.5453909578047573e-05 -7.9303495045510399e-05 0 -3.6843980619853873e-05 -7.261277612981561e-05 0 -8.0747544705124774e-06 -9.1114755511449001e-06 0 -9.1690165518321669e-06 -1.1598069192358801e-05 0 -7.1012335251144954e-06 -1.0274822107733006e-05 0 -8.1662579869751136e-06 -1.9593818986267045e-05 0 -6.2206107001831561e-06 -1.9083704691581699e-05 0 -7.8617114900254512e-06 -1.61532114373103e-05 0 -3.7681828889946413e-05 9.3866196724609732e-05 0 -3.2096950276741565e-05 7.2792811617337902e-05 0 -2.3464833402286887e-05 8.0200617772013244e-05 0 -2.1026195903289627e-09 -3.562358290270534e-10 0 -2.1976684930831855e-09 4.0182420043186781e-11 0 -1.8299974582321867e-06 -3.2766485867896907e-07 0 -1.6241446136695037e-09 -8.0816315898647373e-11 0 -1.4650429266573923e-09 1.7388398536188763e-10 0 -1.3507283998984744e-06 6.0721005684235197e-08 0 -7.1638089798492439e-07 -4.6333709897765846e-08 0 -1.4283169627642904e-06 -4.4125601021193553e-07 0 -8.8224599472044523e-07 -6.3499406502583792e-07 0 -1.2110076077005988e-05 0.00015764264433479135 0 -2.7946941867717455e-05 0.00016863125363785224 0 -2.6844660107731045e-05 0.00014947810441952081 0 -2.9882570628576149e-05 -7.313311307302404e-05 0 -2.2928001772297069e-05 -7.8767089668495407e-05 0 -2.3160546672028329e-05 -6.9700863020583613e-05 0 -2.0517426441382268e-05 -3.6430033581407737e-05 0 -1.5474654403776706e-05 -3.6471798832899613e-05 0 -1.4944151813452053e-05 -2.9288919887448774e-05 0 -1.9965815195740236e-07 3.0357658950920538e-07 0 -2.5230905211280771e-07 6.2004569635485985e-07 0 -1.7631779918160907e-07 2.799186730334554e-07 0 -6.1621146780109512e-06 2.0632322498417537e-07 0 -4.2375576229337425e-06 2.2692876277922716e-07 0 -6.8709677652300387e-06 1.1820474547025482e-06 0 -6.2206107001831561e-06 -1.9083704691581699e-05 0 -5.6281527828720481e-06 -1.6190778712245964e-05 0 -7.8617114900254512e-06 -1.61532114373103e-05 0 -1.7631779918160907e-07 2.799186730334554e-07 0 -2.5230905211280771e-07 6.2004569635485985e-07 0 -1.5662294770355613e-07 5.9145456071123079e-07 0 -2.5230905211280771e-07 6.2004569635485985e-07 0 -2.2372461022062295e-07 3.9898916454679067e-07 0 -4.3075463750144721e-07 7.1654078349568714e-07 0 -4.1395097066984318e-07 6.0899450647114851e-07 0 -4.3075463750144721e-07 7.1654078349568714e-07 0 -2.2372461022062295e-07 3.9898916454679067e-07 0 -1.5090495303083495e-05 -1.8983877198246909e-05 0 -1.3778710849640333e-05 -1.8020839073453469e-05 0 -1.4863661725428508e-05 -1.721444865964231e-05 0 -6.8362388813244744e-06 -4.413853384848852e-06 0 -6.2426178013024109e-06 -6.6293899605361918e-06 0 -5.5620585547921671e-06 -3.5336781584550125e-06 0 -7.5827413456850292e-06 -2.2333764921936912e-05 0 -6.2206107001831561e-06 -1.9083704691581699e-05 0 -8.1662579869751136e-06 -1.9593818986267045e-05 0 -2.0405495324523045e-06 3.8066963408209704e-06 0 -4.5567860971103269e-06 -5.5853702078429254e-07 0 -2.6971763245921309e-06 2.2631588138126521e-06 0 1.7274765408119282e-05 0.00015342841664586345 0 1.605676151471222e-05 0.00017168038575666127 0 2.814480853445991e-06 0.00015624016592521436 0 -4.357182627970316e-05 -7.2623078085444143e-05 0 -4.3630599758705083e-05 -8.0207754637100218e-05 0 -3.6843980619853873e-05 -7.261277612981561e-05 0 -4.3275199541006746e-05 -6.4708665601033129e-05 0 -4.357182627970316e-05 -7.2623078085444143e-05 0 -3.6843980619853873e-05 -7.261277612981561e-05 0 1.8188082167998614e-05 0.00013601119172518055 0 1.7274765408119282e-05 0.00015342841664586345 0 2.814480853445991e-06 0.00015624016592521436 0 -8.632538935980228e-08 5.6799308448293368e-06 0 -4.3251649082280477e-07 4.5943234848993553e-06 0 -2.0405495324523045e-06 3.8066963408209704e-06 0 -1.2376337039632412e-06 9.6467223017792341e-07 0 -8.2402963734885741e-07 8.5727375206182854e-07 0 -1.5550375946646434e-06 9.2769851226124807e-07 0 -8.6623826867793264e-07 7.7928727643166441e-07 0 -1.5550375946646434e-06 9.2769851226124807e-07 0 -8.2402963734885741e-07 8.5727375206182854e-07 0 1.4056400107013638e-06 8.1368105693620561e-05 0 5.5792478830931017e-06 9.2744176506049758e-05 0 -1.0463970085800644e-05 9.3245274849799528e-05 0 5.5792478830931017e-06 9.2744176506049758e-05 0 1.4472191946849539e-06 0.00010476036303135093 0 -1.0463970085800644e-05 9.3245274849799528e-05 0 -4.2316587713449619e-06 -2.7489324686101662e-06 0 -4.556786097110326e-06 -5.5853702078429328e-07 0 -5.5620585547921671e-06 -3.5336781584550125e-06 0 -7.6896097100464859e-06 -2.8599172270982823e-05 0 -6.467222263986998e-06 -2.831968885292381e-05 0 -7.9992049275283167e-06 -2.6080065167074425e-05 0 -1.1656862776282184e-05 -2.54797316406923e-05 0 -1.2465016627957473e-05 -2.2908642154125046e-05 0 -1.4283657460979571e-05 -2.245837607586069e-05 0 -4.3251649082280477e-07 4.5943234848993553e-06 0 -1.9212891630802901e-06 2.977766878756948e-06 0 -2.0405495324523045e-06 3.8066963408209704e-06 0 -7.4596352315128367e-05 0.00015566082289001666 0 -7.414654710862852e-05 0.00013864544041068496 0 -5.9588444309473171e-05 0.00015530592621168529 0 -2.6597975963785281e-06 -6.2758860826737012e-05 0 -9.9868760958958257e-06 -7.2820220356151848e-05 0 -3.4416188918334845e-06 -7.1331138050374529e-05 0 -1.4477732244169083e-05 -4.25558694781183e-06 0 -1.4296189346744711e-05 -4.1314652397280078e-06 0 -1.1301712083947313e-05 -2.5585534679939756e-06 0 -2.2645496256762972e-05 6.3082198563326782e-06 0 -1.7365276964833721e-05 3.6485798617148172e-06 0 -2.1781356293647286e-05 6.3653036568309287e-06 0 -4.2316587713449619e-06 -2.7489324686101662e-06 0 -6.2426178013024118e-06 -6.6293899605361926e-06 0 -3.9188166677777246e-06 -7.0304640424114866e-06 0 -6.2447312018101045e-06 -8.2122374759221483e-06 0 -8.3703023998277867e-06 -1.4981168028424143e-05 0 -3.7517315318397694e-06 -1.6053937694775604e-05 0 -5.3146743462948835e-06 -9.9575883035150881e-06 0 -6.2426178013024118e-06 -6.6293899605361926e-06 0 -7.1012335251144954e-06 -1.0274822107733006e-05 0 -8.0747544705124774e-06 -9.1114755511449001e-06 0 -7.1012335251144954e-06 -1.0274822107733006e-05 0 -6.2426178013024118e-06 -6.6293899605361926e-06 0 -2.2773027222433235e-05 -8.768322058990983e-05 0 -1.6642887141498355e-05 -8.8100820485552533e-05 0 -1.7307582973749473e-05 -8.1774896665953557e-05 0 -2.772397954275812e-05 0.00018854870251247297 0 -4.2859436719749804e-05 0.00018824998055745601 0 -4.1608205010471021e-05 0.00017370990609997622 0 -1.3194973669704705e-05 0.00018903021862728419 0 -2.772397954275812e-05 0.00018854870251247297 0 -1.459470606624626e-05 0.0001747667935516068 0 -2.934930787623396e-05 -8.7449953944581838e-05 0 -2.2773027222433235e-05 -8.768322058990983e-05 0 -2.8810620523146576e-05 -8.0944301119877029e-05 0 -7.0843342162428694e-06 1.5778671136950377e-05 0 -1.5264731000885859e-05 2.5381045161941332e-05 0 -1.5960724771431201e-05 1.6785816781586027e-05 0 -1.0682283747595311e-05 -1.1599430579757235e-05 0 -1.2193336701053909e-05 -1.3930143465561481e-05 0 -1.09185283460137e-05 -1.4082487849704014e-05 0 -5.3146743462948835e-06 -9.9575883035150881e-06 0 -7.1012335251144954e-06 -1.0274822107733006e-05 0 -5.5430981519911896e-06 -1.2780702153119743e-05 0 -8.0070819063348179e-06 -1.2744348552876557e-05 0 -5.5430981519911896e-06 -1.2780702153119743e-05 0 -7.1012335251144954e-06 -1.0274822107733006e-05 0 -1.0856531363743385e-05 -3.1025481089600112e-05 0 -9.8631205806580499e-06 -2.2752552825509781e-05 0 -1.4944151813452053e-05 -2.9288919887448774e-05 0 -5.3824890085145994e-05 4.2019820436522355e-05 0 -3.7749149082907295e-05 3.2889541032735902e-05 0 -4.7431444413481385e-05 4.695005785887488e-05 0 -1.1098370054768325e-05 -5.2480559775276885e-06 0 -1.4039606921453689e-05 -8.1861265003826339e-06 0 -9.9944577378578081e-06 -6.3597250069828908e-06 0 -1.1860409602894779e-05 -9.5358841383387669e-06 0 -9.9944577378578081e-06 -6.3597250069828908e-06 0 -1.4039606921453689e-05 -8.1861265003826339e-06 0 -1.382433369654792e-05 -2.1209896307801077e-05 0 -1.1882742234904629e-05 -2.1326284938855963e-05 0 -1.3296063759525282e-05 -2.0004136802331731e-05 0 -4.2758694471125815e-05 7.0499538814283505e-05 0 -5.445098665949126e-05 7.9406388025545036e-05 0 -4.8497485173268369e-05 6.018183103266146e-05 0 -1.3842304026740312e-05 -4.4664421227057108e-06 0 -1.7404454209232076e-05 -6.8974641055590495e-06 0 -1.4274545990979774e-05 -6.0815850828097891e-06 0 -1.7920230235138234e-05 -8.8599333179307335e-06 0 -1.4274545990979774e-05 -6.0815850828097891e-06 0 -1.7404454209232076e-05 -6.8974641055590495e-06 0 -2.7020570363543771e-05 1.6448921990009288e-05 0 -2.6915956853663461e-05 1.2138109952014087e-05 0 -2.0649817470136459e-05 1.0841217248656981e-05 0 -2.0716157666111781e-05 7.611050336286022e-06 0 -2.0649817470136459e-05 1.0841217248656981e-05 0 -2.6915956853663461e-05 1.2138109952014087e-05 0 -1.2969460783003737e-05 -1.6274253738223162e-05 0 -1.130134042372868e-05 -1.6451940341249483e-05 0 -1.09185283460137e-05 -1.4082487849704014e-05 0 -3.1167647697607131e-05 -2.0437159673489248e-05 0 -2.8628935176445689e-05 -2.247171064138866e-05 0 -2.3807960429670355e-05 -1.6439637854560318e-05 0 -4.5567570644262696e-06 6.654508998690544e-05 0 -1.3580035103289664e-05 5.2118507189171587e-05 0 -1.9925686980859691e-06 4.9723979584551453e-05 0 -5.1082854488280183e-06 -6.3445754003800663e-07 0 -6.1337308535662985e-06 -2.274030845872497e-06 0 -7.0972993680359718e-06 -3.4775601430896401e-06 0 -6.2960106104216584e-07 1.6845637929094327e-06 0 -3.7830246435188971e-09 2.302205288595802e-06 0 -1.0433832616918865e-07 1.616221547915357e-06 0 -4.9395402943823426e-05 0.00011959801485365489 0 -3.813835489745991e-05 0.00012468923675843644 0 -5.3230789480981698e-05 0.00013900340673176135 0 -1.231365820009146e-05 -5.4756428313199817e-05 0 -1.7380318067289019e-05 -5.7898395521727851e-05 0 -1.1872371527797467e-05 -6.452783416149258e-05 0 -4.2316587713449619e-06 -2.7489324686101662e-06 0 -5.5620585547921663e-06 -3.533678158455012e-06 0 -6.2426178013024118e-06 -6.6293899605361926e-06 0 -1.2465016627957473e-05 -2.2908642154125042e-05 0 -1.1882742234904629e-05 -2.1326284938855963e-05 0 -1.382433369654792e-05 -2.1209896307801077e-05 0 -8.0070819063348179e-06 -1.2744348552876557e-05 0 -9.5479157777250658e-06 -1.4230936362012583e-05 0 -7.8617114900254512e-06 -1.61532114373103e-05 0 -5.9383907956657868e-10 -2.5355569790690603e-10 0 -3.6152566951500815e-07 -3.8839068080399857e-07 0 -6.7469201772093581e-07 -6.2179618832988065e-07 0 -6.6563532668605863e-10 2.4046120980642834e-10 0 -7.6433032758904644e-07 5.4503242056761154e-07 0 -5.3586058144335915e-07 5.1064922577496006e-07 0 -9.8631205806580499e-06 -2.2752552825509781e-05 0 -1.4638770205507478e-05 -2.2858149330504055e-05 0 -1.4944151813452053e-05 -2.9288919887448774e-05 0 -6.1621146780109512e-06 2.0632322498417537e-07 0 -6.8709677652300387e-06 1.1820474547025482e-06 0 -8.9816054662574809e-06 9.099912445180558e-07 0 -1.314707284500666e-05 8.9464604953019471e-06 0 -1.5960724771431198e-05 1.6785816781586027e-05 0 -2.1079232241850089e-05 1.5567007336411476e-05 0 -4.3887874265638178e-07 -3.4444294561510047e-07 0 -2.2350573189210272e-07 -1.7414775734771023e-07 0 -2.6722511602273506e-07 -5.1781722860495501e-08 0 -1.8917427394886675e-07 9.6261591642641095e-08 0 -2.6722511602273506e-07 -5.1781722860495501e-08 0 -2.2350573189210272e-07 -1.7414775734771023e-07 0 -4.1395097066984318e-07 6.0899450647114851e-07 0 -4.1282032361275943e-07 5.1461582942619061e-07 0 -8.2402963734885741e-07 8.5727375206182854e-07 0 -8.6623826867793264e-07 7.7928727643166441e-07 0 -8.2402963734885741e-07 8.5727375206182854e-07 0 -4.1282032361275943e-07 5.146158294261905e-07 0 -1.1400240939941121e-05 4.4579060504971218e-06 0 -8.4593714131670961e-06 5.4173721398035571e-06 0 -1.314707284500666e-05 8.9464604953019471e-06 0 -6.2960106104216584e-07 1.6845637929094327e-06 0 -7.3882220795441026e-07 2.3186633903600406e-06 0 -3.7830246435188971e-09 2.302205288595802e-06 0 -7.4837704088438577e-07 7.5630385749085811e-07 0 -1.5651068485523486e-06 -6.7043338126791507e-09 0 -7.1638089798492439e-07 -4.6333709897765846e-08 0 -6.8709677652300387e-06 1.1820474547025482e-06 0 -4.2375576229337425e-06 2.2692876277922716e-07 0 -4.7864503053467341e-06 1.6730681116690001e-06 0 -1.7182815488532128e-06 2.1824068428531656e-06 0 -5.4057240373750842e-07 3.4212019925068649e-06 0 -7.3882220795441026e-07 2.3186633903600406e-06 0 -4.4221453952263374e-06 -1.2091366397976279e-07 0 -4.7449507597176716e-06 -7.0414870663052405e-07 0 -3.3807413270623808e-06 2.4983234730913425e-07 0 -3.8176463357399423e-06 -4.3034222754621878e-07 0 -3.3807413270623808e-06 2.4983234730913425e-07 0 -4.7449507597176716e-06 -7.0414870663052405e-07 0 -2.1976684930831516e-09 4.0182420043192953e-11 0 -1.4834693542432869e-09 -5.4731249994054817e-10 0 -1.8299974582321867e-06 -3.2766485867896907e-07 0 -1.1736913908570235e-09 2.8854808657367886e-10 0 -1.6241446136695037e-09 -8.0816315898647373e-11 0 -1.3507283998984744e-06 6.0721005684235197e-08 0 1.4902446586312109e-05 5.1021063271175603e-05 0 -1.9925686980859691e-06 4.9723979584551453e-05 0 3.4266439764541231e-07 3.5880833242847328e-05 0 -1.2376337039632412e-06 9.6467223017792341e-07 0 -1.9372057822220483e-06 7.8915379137973661e-07 0 -1.0271411920445779e-06 1.0132106044322947e-06 0 -7.9741377250375024e-06 -4.6081740302973257e-06 0 -6.1080029147532308e-06 -3.1825898257127478e-06 0 -7.3344739796813664e-06 -5.3908899349225752e-06 0 -1.0393603578548487e-05 -2.3432012497898507e-05 0 -1.1882742234904629e-05 -2.1326284938855963e-05 0 -1.2465016627957473e-05 -2.2908642154125042e-05 0 -1.1698847050389782e-05 -3.0649303533940897e-06 0 -1.1301712083947313e-05 -2.5585534679939756e-06 0 -9.4212381519675985e-06 -1.8866756020298908e-06 0 -1.7808053088215867e-05 4.083736641406518e-06 0 -1.4087878256418199e-05 2.2546244710410039e-06 0 -1.7365276964833721e-05 3.6485798617148172e-06 0 -9.69885402708941e-06 -1.6444098698922133e-05 0 -7.8617114900254512e-06 -1.61532114373103e-05 0 -9.5479157777250658e-06 -1.4230936362012583e-05 0 -1.1301712083947313e-05 -2.5585534679939756e-06 0 -9.2994763327465179e-06 -1.7476967791776676e-06 0 -8.9695769620010687e-06 -1.5160844834590825e-06 0 -1.1840720489185286e-05 2.1238864845263206e-06 0 -1.0143278748857422e-05 2.4645642487067783e-06 0 -1.5558174181985715e-05 3.9491523504651663e-06 0 -1.1917199728272146e-05 -3.0505652791098085e-06 0 -9.2994763327465179e-06 -1.7476967791776676e-06 0 -1.1301712083947313e-05 -2.5585534679939756e-06 0 -3.5294648811448556e-06 5.1440573131977181e-07 0 -4.4794893967564378e-06 2.2465102053871238e-07 0 -4.7626912939232589e-06 3.7864394370002349e-08 0 -2.8979191482625182e-06 -4.2174317853370599e-07 0 -4.2375576229337425e-06 2.2692876277922716e-07 0 -4.9917692558564183e-06 -5.1194239291310592e-07 0 -1.6310072983212418e-05 6.8029161804200254e-06 0 -1.1400240939941121e-05 4.4579060504971218e-06 0 -1.314707284500666e-05 8.9464604953019471e-06 0 -1.2969460783003737e-05 -1.6274253738223162e-05 0 -1.09185283460137e-05 -1.4082487849704012e-05 0 -1.2193336701053909e-05 -1.3930143465561481e-05 0 -5.0156551339537293e-06 0.00012080042303967178 0 -1.2246892977995107e-06 0.00014009276635410531 0 -1.5251259662144781e-05 0.00013754578411872068 0 -3.1657328969069859e-05 -5.6474881535561089e-05 0 -3.4359169072064828e-05 -6.5348437411281578e-05 0 -2.786174419013797e-05 -6.4014009522888108e-05 0 -4.3887874265638178e-07 -3.4444294561510047e-07 0 -3.6152566951500815e-07 -3.8839068080399857e-07 0 -2.2350573189210272e-07 -1.7414775734771023e-07 0 -8.6623826867793264e-07 7.7928727643166441e-07 0 -4.1282032361275943e-07 5.146158294261905e-07 0 -5.3586058144335915e-07 5.1064922577496006e-07 0 -8.7685716648749511e-10 -3.7464754762375959e-10 0 -6.7469201772093581e-07 -6.2179618832988065e-07 0 -8.9233656233930634e-07 -6.6059309499663497e-07 0 -8.5844468227060897e-10 2.5633654860596658e-10 0 -8.5712126990357471e-07 4.5175899960571711e-07 0 -7.6433032758904644e-07 5.4503242056761154e-07 0 -7.9741377250375024e-06 -4.6081740302973257e-06 0 -9.7122679658393028e-06 -6.6121675802675063e-06 0 -8.9220084050179691e-06 -5.9588125602987606e-06 0 -1.0295645259084109e-05 -7.9181418323436817e-06 0 -8.9220084050179691e-06 -5.9588125602987606e-06 0 -9.7122679658393028e-06 -6.6121675802675063e-06 0 -2.4780135762336309e-05 5.6093322593762223e-05 0 -2.1698826480442415e-05 3.9586743697717711e-05 0 -1.3580035103289664e-05 5.2118507189171587e-05 0 -1.0010609163048875e-05 3.4930384819939389e-05 0 -1.3580035103289665e-05 5.2118507189171587e-05 0 -2.1698826480442415e-05 3.9586743697717711e-05 0 -1.1390325555426644e-06 7.69716402415289e-06 0 2.5755303059273609e-07 5.2445841371031526e-06 0 2.0018563119350747e-06 8.9071894477270621e-06 0 -7.9741377250375024e-06 -4.6081740302973257e-06 0 -6.1337308535662985e-06 -2.274030845872497e-06 0 -6.1080029147532308e-06 -3.1825898257127478e-06 0 -2.0031580979843139e-07 3.2184546293564412e-07 0 -1.7631779918160907e-07 2.799186730334554e-07 0 -1.5662294770355613e-07 5.9145456071123079e-07 0 -1.0682283747595311e-05 -1.1599430579757235e-05 0 -1.09185283460137e-05 -1.4082487849704014e-05 0 -9.1690165518321669e-06 -1.1598069192358801e-05 0 -3.7681828889946413e-05 9.3866196724609732e-05 0 -4.4075069145138468e-05 8.2064345265256861e-05 0 -3.2096950276741565e-05 7.2792811617337902e-05 0 -1.5090495303083495e-05 -1.8983877198246909e-05 0 -1.4863661725428508e-05 -1.721444865964231e-05 0 -1.6028541181353291e-05 -1.9186599234077847e-05 0 -8.1662579869751136e-06 -1.9593818986267045e-05 0 -9.5691886426894119e-06 -1.8485106731046429e-05 0 -9.5596115326589991e-06 -2.1549776133683357e-05 0 -2.4760027009047622e-06 7.2058388323356099e-07 0 -1.5550375946646434e-06 9.2769851226124807e-07 0 -2.571870556997988e-06 7.482257065804313e-07 0 -2.4466000269525649e-05 2.6453665300661102e-05 0 -1.5960724771431201e-05 1.6785816781586027e-05 0 -1.5264731000885859e-05 2.5381045161941332e-05 0 -4.352911735855678e-06 -1.3649451818903849e-06 0 -6.5969067088654446e-06 -1.7108371749300705e-06 0 -4.018739083690739e-06 -7.5608589390020811e-07 0 -9.6253345087326592e-06 1.9154900556445558e-06 0 -6.2078691027905954e-06 1.5066900812169542e-06 0 -5.7141158305256179e-06 5.9218779997747975e-07 0 -5.3146743462948835e-06 -9.9575883035150881e-06 0 -3.9188166677777246e-06 -7.0304640424114866e-06 0 -6.2426178013024118e-06 -6.6293899605361926e-06 0 -1.8787305329364122e-06 5.6456244120243927e-07 0 -3.1055958454997906e-06 5.6341431826173237e-07 0 -1.7269685319580904e-06 7.3510978756068922e-07 0 -2.0857605861050541e-06 -9.1763062696647406e-07 0 -1.5408668856122712e-06 -9.0661625701065613e-07 0 -3.2883243602075529e-06 -8.8322162166868142e-07 0 -4.7725292178138178e-05 3.0653404252757299e-05 0 -3.5860470258296156e-05 2.3299990748504601e-05 0 -3.7749149082907295e-05 3.2889541032735902e-05 0 -2.7890794424796162e-05 -1.5427524246676414e-05 0 -2.3807960429670355e-05 -1.6439637854560318e-05 0 -2.2272254778082877e-05 -1.1939419410230284e-05 0 -7.0843342162428694e-06 1.5778671136950377e-05 0 -3.1594678836462467e-07 1.185726599213983e-05 0 -2.843578065800841e-06 2.1829783630108581e-05 0 5.5930434658575456e-06 1.3766485716258624e-05 0 -2.8435780658008414e-06 2.1829783630108581e-05 0 -3.1594678836462467e-07 1.185726599213983e-05 0 -1.241037870988025e-05 -1.7144759231894738e-05 0 -1.7066409491090954e-05 -1.9096314978726561e-05 0 -1.4638770205507478e-05 -2.2858149330504055e-05 0 -1.8763206920369128e-05 -2.7304073613214447e-05 0 -1.4638770205507478e-05 -2.2858149330504055e-05 0 -1.7066409491090954e-05 -1.9096314978726561e-05 0 -4.2316587713449619e-06 -2.7489324686101662e-06 0 -1.9823547345293534e-06 4.8024751445401036e-07 0 -2.6971763245921309e-06 2.2631588138126521e-06 0 -1.0393603578548487e-05 -2.3432012497898507e-05 0 -1.2465016627957475e-05 -2.2908642154125046e-05 0 -1.0714951570125182e-05 -2.4948788497425988e-05 0 -2.0031580979843139e-07 3.2184546293564412e-07 0 -7.1638089798492439e-07 -4.6333709897765846e-08 0 -4.8633865442753643e-07 -1.6691412381533071e-07 0 -1.4039606921453689e-05 -8.1861265003826339e-06 0 -1.8823840670407682e-05 -1.1696358317956835e-05 0 -1.5399149762702022e-05 -1.1341869837280436e-05 0 -7.6896097100464859e-06 -2.8599172270982823e-05 0 -7.9992049275283167e-06 -2.6080065167074425e-05 0 -9.3343217547032987e-06 -2.5761937488358929e-05 0 -3.7948160034657052e-05 4.6630540118989538e-05 0 -4.7431444413481385e-05 4.695005785887488e-05 0 -3.7749149082907295e-05 3.2889541032735902e-05 0 -5.3230789480981698e-05 0.00013900340673176135 0 -3.813835489745991e-05 0.00012468923675843644 0 -3.7884212368645068e-05 0.00014053462655029764 0 -1.1872371527797467e-05 -6.452783416149258e-05 0 -1.7380318067289019e-05 -5.7898395521727851e-05 0 -1.8261753851851511e-05 -6.5465920359146531e-05 0 -2.3704212609052815e-06 4.5933513997244817e-07 0 -1.7891295905535188e-06 8.7123153551100382e-07 0 -1.5589957793148755e-06 9.1239332801963082e-07 0 -1.0295645259084109e-05 -7.9181418323436817e-06 0 -9.7122679658393028e-06 -6.6121675802675063e-06 0 -1.1528382177585371e-05 -9.1131686070908023e-06 0 -1.7283592927796194e-07 1.0828645170531077e-06 0 -1.0433832616918867e-07 1.6162215479153572e-06 0 1.4193378643449544e-08 1.2789826364025031e-06 0 1.2481316459362574e-07 1.9196131002585876e-06 0 1.4193378643449544e-08 1.2789826364025031e-06 0 -1.0433832616918865e-07 1.616221547915357e-06 0 -6.8709677652300387e-06 1.1820474547025482e-06 0 -1.0143278748857422e-05 2.4645642487067783e-06 0 -8.9816054662574809e-06 9.099912445180558e-07 0 -1.8763206920369128e-05 -2.7304073613214447e-05 0 -2.3171955140665421e-05 -3.2030803984153189e-05 0 -2.0517426441382268e-05 -3.6430033581407737e-05 0 -1.0338620589867264e-05 8.6908655005059348e-07 0 -7.8612818696905739e-06 8.088254402917078e-08 0 -1.2421011400722766e-05 1.6493538433497979e-06 0 -1.0463970085800644e-05 9.3245274849799528e-05 0 -2.4402639434829567e-05 0.00010922796998044308 0 -2.6801031932801587e-05 9.4899021374615444e-05 0 -1.0463970085800644e-05 9.3245274849799528e-05 0 -2.6801031932801587e-05 9.4899021374615444e-05 0 -2.3464833402286887e-05 8.0200617772013244e-05 0 -3.7681828889946413e-05 9.3866196724609732e-05 0 -2.346483340228689e-05 8.020061777201323e-05 0 -2.6801031932801587e-05 9.4899021374615444e-05 0 -2.6334347407720209e-05 -4.3481245501587971e-05 0 -2.2334916773732714e-05 -5.0943815602561139e-05 0 -1.936596186074202e-05 -4.3196855179483229e-05 0 -2.6334347407720209e-05 -4.3481245501587971e-05 0 -1.936596186074202e-05 -4.3196855179483229e-05 0 -2.0517426441382268e-05 -3.6430033581407737e-05 0 2.5755303059273609e-07 5.2445841371031526e-06 0 1.1741655136651397e-06 6.4529464868279264e-06 0 2.0018563119350747e-06 8.9071894477270621e-06 0 -4.1101398086978962e-10 -1.9662745928386844e-10 0 -2.1839606801047471e-10 1.7771353271894057e-11 0 -2.2350573189210272e-07 -1.7414775734771023e-07 0 -3.6623222796716207e-10 1.7807233763883602e-10 0 -5.3169751049471988e-10 2.4717270301393474e-10 0 -4.1282032361275943e-07 5.146158294261905e-07 0 -1.9372057822220483e-06 7.8915379137973661e-07 0 -1.5589957793148757e-06 9.1239332801963082e-07 0 -1.0271411920445779e-06 1.0132106044322947e-06 0 -6.2447312018101045e-06 -8.2122374759221483e-06 0 -6.6734494963260055e-06 -6.6662271011287708e-06 0 -8.2443748517569321e-06 -9.9071048855974507e-06 0 -7.8612818696905739e-06 8.0882544029170793e-08 0 -8.9816054662574792e-06 9.0999124451805591e-07 0 -1.2421011400722766e-05 1.6493538433497979e-06 0 -2.3782420194580131e-10 1.2926961519411944e-10 0 -2.2372461022062295e-07 3.9898916454679067e-07 0 -1.452995812437462e-07 1.4110726650482553e-07 0 -9.6253345087326592e-06 1.9154900556445558e-06 0 -7.9824122071282966e-06 5.6614682042516636e-07 0 -1.119581885231228e-05 1.5384563364025829e-06 0 -6.5969067088654446e-06 -1.7108371749300705e-06 0 -7.6380637172349951e-06 -1.455433586943608e-06 0 -5.6161140544497388e-06 -7.9836727165251471e-07 0 -2.441098452401508e-05 -2.2068639087989495e-05 0 -2.3807960429670355e-05 -1.6439637854560318e-05 0 -2.8628935176445689e-05 -2.247171064138866e-05 0 -4.3075463750144721e-07 7.1654078349568714e-07 0 -4.1395097066984318e-07 6.0899450647114851e-07 0 -7.3844318175026593e-07 9.0578799505305904e-07 0 -1.2969460783003737e-05 -1.6274253738223162e-05 0 -1.4863661725428508e-05 -1.721444865964231e-05 0 -1.3778710849640333e-05 -1.8020839073453469e-05 0 -1.7182815488532128e-06 2.1824068428531656e-06 0 -7.3882220795441026e-07 2.3186633903600406e-06 0 -1.7359427689621232e-06 1.4952834560192131e-06 0 -4.5567570644262696e-06 6.654508998690544e-05 0 -1.8228421723032017e-05 6.7611675052938299e-05 0 -1.3580035103289664e-05 5.2118507189171587e-05 0 -2.0031580979843139e-07 3.2184546293564412e-07 0 -2.6722511602273506e-07 -5.1781722860495501e-08 0 -1.7631779918160907e-07 2.799186730334554e-07 0 -4.407788844547621e-05 0.00015712994927273544 0 -3.7884212368645068e-05 0.00014053462655029764 0 -2.6844660107731045e-05 0.00014947810441952081 0 -1.6251976299829064e-05 -7.3893379161488019e-05 0 -1.8261753851851511e-05 -6.5465920359146531e-05 0 -2.3160546672028329e-05 -6.9700863020583613e-05 0 -4.1395097066984318e-07 6.0899450647114851e-07 0 -8.2402963734885741e-07 8.5727375206182854e-07 0 -7.3844318175026593e-07 9.0578799505305904e-07 0 -1.7182815488532128e-06 2.1824068428531656e-06 0 -2.8571943450515975e-06 7.2773089044116077e-07 0 -3.4113860134110211e-06 1.0232241701905333e-06 0 -1.2110076077005988e-05 0.00015764264433479135 0 -1.459470606624626e-05 0.0001747667935516068 0 -2.7946941867717455e-05 0.00016863125363785224 0 -4.407788844547621e-05 0.00015712994927273544 0 -2.7946941867717452e-05 0.00016863125363785221 0 -4.1608205010471021e-05 0.00017370990609997622 0 -2.9882570628576149e-05 -7.313311307302404e-05 0 -2.8810620523146576e-05 -8.0944301119877029e-05 0 -2.2928001772297069e-05 -7.8767089668495407e-05 0 -1.6251976299829064e-05 -7.3893379161488019e-05 0 -2.2928001772297069e-05 -7.8767089668495407e-05 0 -1.7307582973749473e-05 -8.1774896665953557e-05 0 -1.314707284500666e-05 8.9464604953019471e-06 0 -2.1079232241850089e-05 1.5567007336411476e-05 0 -2.0649817470136459e-05 1.0841217248656981e-05 0 -1.7991578296206977e-05 -1.406470831182835e-05 0 -2.3807960429670355e-05 -1.6439637854560318e-05 0 -2.0688663770215573e-05 -1.8504044399374115e-05 0 -2.441098452401508e-05 -2.2068639087989495e-05 0 -2.0688663770215573e-05 -1.8504044399374115e-05 0 -2.3807960429670355e-05 -1.6439637854560318e-05 0 -3.7948160034657052e-05 4.6630540118989538e-05 0 -3.7749149082907295e-05 3.2889541032735902e-05 0 -2.9872943535962761e-05 3.808313817143696e-05 0 -2.4466000269525649e-05 2.6453665300661102e-05 0 -2.9872943535962761e-05 3.808313817143696e-05 0 -3.7749149082907295e-05 3.2889541032735902e-05 0 -8.6623826867793264e-07 7.7928727643166441e-07 0 -1.2260120843974107e-06 8.0915191954023993e-07 0 -1.5550375946646434e-06 9.2769851226124807e-07 0 1.2095754163484656e-05 3.5013558978638934e-05 0 1.4902446586312109e-05 5.1021063271175603e-05 0 3.4266439764541231e-07 3.5880833242847328e-05 0 -2.0857605861050541e-06 -9.1763062696647406e-07 0 -3.4361038706726516e-06 -8.7078210329574883e-07 0 -2.3028251444944042e-06 -6.9697684306833631e-07 0 -1.8787305329364122e-06 5.6456244120243927e-07 0 -1.8125593226003084e-06 3.0316929331155583e-07 0 -2.8274577555007597e-06 4.0746514395059235e-07 0 -7.9741377250375024e-06 -4.6081740302973257e-06 0 -7.0972993680359718e-06 -3.4775601430896401e-06 0 -6.1337308535662985e-06 -2.274030845872497e-06 0 -3.1055958454997906e-06 5.6341431826173237e-07 0 -2.6903272271779964e-06 6.9811787980964691e-07 0 -1.7269685319580904e-06 7.3510978756068922e-07 0 -3.2883243602075529e-06 -8.8322162166868142e-07 0 -1.5408668856122714e-06 -9.0661625701065613e-07 0 -2.3293701225142988e-06 -7.1052392277112458e-07 0 -1.1840720489185286e-05 2.1238864845263206e-06 0 -1.5558174181985715e-05 3.9491523504651663e-06 0 -1.2421011400722766e-05 1.6493538433497979e-06 0 -1.7365276964833721e-05 3.6485798617148172e-06 0 -1.2421011400722766e-05 1.6493538433497979e-06 0 -1.5558174181985715e-05 3.9491523504651663e-06 0 -1.2110076077005988e-05 0.00015764264433479135 0 -1.5251259662144781e-05 0.00013754578411872068 0 -1.2246892977995107e-06 0.00014009276635410531 0 -2.9882570628576149e-05 -7.313311307302404e-05 0 -2.786174419013797e-05 -6.4014009522888108e-05 0 -3.4359169072064835e-05 -6.5348437411281564e-05 0 -7.6896097100464859e-06 -2.8599172270982823e-05 0 -6.1067846117728429e-06 -2.994241117454691e-05 0 -6.467222263986998e-06 -2.831968885292381e-05 0 -1.3888614127923099e-05 -2.4053039035865061e-05 0 -1.1656862776282184e-05 -2.54797316406923e-05 0 -1.4283657460979571e-05 -2.245837607586069e-05 0 -5.7130650796473047e-06 -7.8624787731724636e-07 0 -4.4221453952263374e-06 -1.2091366397976279e-07 0 -4.7626912939232589e-06 3.7864394370002349e-08 0 -1.6954146394965507e-05 -2.0840995115418931e-05 0 -1.6276964387174042e-05 -2.0269709554351603e-05 0 -1.6028541181353291e-05 -1.9186599234077847e-05 0 -6.6980130703058107e-07 -1.8711772223388703e-05 0 -2.4007629947948059e-06 -1.8549085952092044e-05 0 -3.8013599235637827e-06 -2.2863080065982278e-05 0 -7.5827413456850292e-06 -2.2333764921936912e-05 0 -5.9074977682984522e-06 -2.2785604490371282e-05 0 -6.2206107001831561e-06 -1.9083704691581699e-05 0 -1.7920230235138234e-05 -8.8599333179307335e-06 0 -1.8823840670407682e-05 -1.1696358317956835e-05 0 -1.4039606921453689e-05 -8.1861265003826339e-06 0 -1.1656862776282184e-05 -2.54797316406923e-05 0 -1.0714951570125182e-05 -2.4948788497425988e-05 0 -1.2465016627957473e-05 -2.2908642154125042e-05 0 -2.0716157666111781e-05 7.611050336286022e-06 0 -1.5558174181985715e-05 3.9491523504651663e-06 0 -1.6310072983212418e-05 6.8029161804200254e-06 0 -1.789129590553519e-06 8.7123153551100382e-07 0 -1.082185040399261e-06 1.2103786936800027e-06 0 -1.5589957793148755e-06 9.1239332801963082e-07 0 -1.7991578296206977e-05 -1.406470831182835e-05 0 -1.7066409491090954e-05 -1.9096314978726561e-05 0 -1.4370048069099743e-05 -1.3808202282818226e-05 0 -1.241037870988025e-05 -1.7144759231894738e-05 0 -1.4370048069099743e-05 -1.3808202282818226e-05 0 -1.7066409491090954e-05 -1.9096314978726561e-05 0 -6.465253581996435e-06 -7.7847698225015358e-07 0 -5.7130650796473047e-06 -7.8624787731724636e-07 0 -4.7626912939232589e-06 3.7864394370002349e-08 0 -1.7991578296206977e-05 -1.406470831182835e-05 0 -1.5399149762702022e-05 -1.1341869837280436e-05 0 -1.8823840670407682e-05 -1.1696358317956835e-05 0 -5.6471244909690254e-06 -2.0742258589241615e-07 0 -6.465253581996435e-06 -7.7847698225015358e-07 0 -4.7626912939232589e-06 3.7864394370002349e-08 0 -2.8979191482625182e-06 -4.2174317853370599e-07 0 -2.0709430355986912e-06 4.285530033045274e-07 0 -4.2375576229337425e-06 2.2692876277922716e-07 0 -1.7991578296206977e-05 -1.406470831182835e-05 0 -1.8823840670407682e-05 -1.1696358317956835e-05 0 -2.3807960429670355e-05 -1.6439637854560318e-05 0 -2.4466000269525649e-05 2.6453665300661102e-05 0 -3.7749149082907295e-05 3.2889541032735902e-05 0 -2.9060297744657732e-05 2.2455802714612568e-05 0 -1.4834693542432869e-09 -5.4731249994054817e-10 0 -1.0547421134604842e-06 -5.6817083719888546e-07 0 -2.3028251444944042e-06 -6.9697684306833631e-07 0 -1.1736913908570235e-09 2.8854808657367886e-10 0 -1.8125593226003084e-06 3.0316929331155583e-07 0 -8.9604056403777053e-07 3.1973250415393203e-07 0 -5.6471244909690254e-06 -2.0742258589241615e-07 0 -4.7626912939232589e-06 3.7864394370002349e-08 0 -4.4794893967564378e-06 2.2465102053871238e-07 0 -6.1621146780109512e-06 2.0632322498417537e-07 0 -4.9917692558564183e-06 -5.1194239291310592e-07 0 -4.2375576229337425e-06 2.2692876277922716e-07 0 -1.5245449140584813e-06 -7.4611605522666882e-07 0 -8.8224599472044523e-07 -6.3499406502583792e-07 0 -1.4283169627642904e-06 -4.4125601021193553e-07 0 -8.2443748517569321e-06 -9.9071048855974507e-06 0 -1.1286880614725366e-05 -1.2024043553314366e-05 0 -8.3703023998277867e-06 -1.4981168028424143e-05 0 -2.0031580979843139e-07 3.2184546293564412e-07 0 -1.5662294770355611e-07 5.914545607112309e-07 0 -8.6745123059711875e-08 7.6403794011688557e-07 0 -4.407788844547621e-05 0.00015712994927273544 0 -5.3230789480981698e-05 0.00013900340673176135 0 -3.7884212368645068e-05 0.00014053462655029764 0 -1.6251976299829064e-05 -7.3893379161488019e-05 0 -1.1872371527797467e-05 -6.452783416149258e-05 0 -1.8261753851851511e-05 -6.5465920359146531e-05 0 -3.5294648811448556e-06 5.1440573131977181e-07 0 -3.1055958454997906e-06 5.6341431826173237e-07 0 -4.4794893967564378e-06 2.2465102053871238e-07 0 -2.8979191482625182e-06 -4.2174317853370599e-07 0 -4.9917692558564183e-06 -5.1194239291310592e-07 0 -3.2883243602075529e-06 -8.8322162166868142e-07 0 -2.5230905211280771e-07 6.2004569635485985e-07 0 -5.6403361509445263e-07 9.3274303718100854e-07 0 -2.9468573478496109e-07 8.7627849951825607e-07 0 -1.1286880614725366e-05 -1.2024043553314366e-05 0 -1.241037870988025e-05 -1.7144759231894738e-05 0 -8.3703023998277867e-06 -1.4981168028424143e-05 0 -7.1231966939403271e-05 0.00010396414051422117 0 -6.8438883607072003e-05 8.6952987565500097e-05 0 -5.3922774189437252e-05 9.4543317041158889e-05 0 -1.6030601133510246e-06 -3.7199206164817789e-05 0 -8.5215425706079627e-06 -4.2103610783982337e-05 0 -1.6639153395406996e-06 -4.5254170724409135e-05 0 -2.6334347407720209e-05 -4.3481245501587971e-05 0 -2.0517426441382268e-05 -3.643003358140773e-05 0 -2.5612817964906648e-05 -3.6816155041353841e-05 0 -4.4853903536569438e-06 -9.1304251542979123e-07 0 -6.1080029147532308e-06 -3.1825898257127474e-06 0 -6.1337308535662985e-06 -2.274030845872497e-06 0 -1.0338620589867264e-05 8.6908655005059348e-07 0 -7.9824122071282949e-06 5.6614682042516615e-07 0 -7.4715075095203277e-06 2.8960041766735675e-08 0 -7.3195123230457625e-06 -9.5389772252325702e-07 0 -5.5070677085980293e-06 -3.9605775479141604e-07 0 -5.6161140544497388e-06 -7.9836727165251471e-07 0 -8.7659588735967519e-07 3.078105493941415e-06 0 -1.3503732052374677e-06 1.5011675514866148e-06 0 -1.0966731051287836e-07 2.1272383706561217e-06 0 -2.5230905211280771e-07 6.2004569635485985e-07 0 -4.3075463750144721e-07 7.1654078349568714e-07 0 -5.6403361509445274e-07 9.3274303718100854e-07 0 -1.0295645259084109e-05 -7.9181418323436817e-06 0 -1.1968792122970334e-05 -1.0667604649024556e-05 0 -1.0270901772335112e-05 -9.0900511466753258e-06 0 -1.0338620589867264e-05 8.6908655005059348e-07 0 -1.119581885231228e-05 1.5384563364025829e-06 0 -7.9824122071282966e-06 5.6614682042516636e-07 0 -7.3195123230457625e-06 -9.5389772252325702e-07 0 -5.6161140544497379e-06 -7.9836727165251461e-07 0 -7.6380637172349951e-06 -1.4554335869436082e-06 0 -1.7182815488532128e-06 2.1824068428531656e-06 0 -1.7359427689621232e-06 1.4952834560192131e-06 0 -2.8571943450515975e-06 7.2773089044116077e-07 0 -2.23320969752436e-05 -6.0519405408452768e-05 0 -2.2334916773732714e-05 -5.0943815602561139e-05 0 -2.6263663985217614e-05 -5.6118117892439145e-05 0 -2.7114149520213388e-05 0.00013023180147227434 0 -2.440263943482957e-05 0.00010922796998044308 0 -1.6969323054994485e-05 0.00012048979703211407 0 -1.7920230235138234e-05 -8.8599333179307335e-06 0 -1.4039606921453689e-05 -8.1861265003826322e-06 0 -1.4274545990979774e-05 -6.0815850828097891e-06 0 -1.1098370054768325e-05 -5.2480559775276885e-06 0 -1.4274545990979774e-05 -6.0815850828097891e-06 0 -1.4039606921453689e-05 -8.1861265003826339e-06 0 -4.7638566716763714e-06 -2.1810259970285536e-06 0 -6.090872076920438e-06 -3.1687160536818373e-06 0 -5.6076726666596467e-06 -4.1982250589494985e-06 0 -7.3553105469992317e-06 -5.2729164154665016e-06 0 -5.6076726666596467e-06 -4.1982250589494985e-06 0 -6.090872076920438e-06 -3.1687160536818373e-06 0 -6.7469201772093581e-07 -6.2179618832988065e-07 0 -8.8224599472044523e-07 -6.3499406502583792e-07 0 -1.5408668856122714e-06 -9.0661625701065613e-07 0 -1.5245449140584813e-06 -7.4611605522666882e-07 0 -1.5408668856122714e-06 -9.0661625701065613e-07 0 -8.8224599472044523e-07 -6.3499406502583792e-07 0 -1.9951091569178923e-06 8.1183665682388437e-07 0 -1.2260120843974107e-06 8.0915191954023993e-07 0 -1.7269685319580904e-06 7.3510978756068922e-07 0 -7.6433032758904644e-07 5.4503242056761154e-07 0 -1.7269685319580904e-06 7.3510978756068922e-07 0 -1.2260120843974107e-06 8.0915191954023993e-07 0 -1.2969460783003737e-05 -1.6274253738223162e-05 0 -1.2491135201493343e-05 -1.8313811096391978e-05 0 -1.130134042372868e-05 -1.6451940341249483e-05 0 -4.4853903536569438e-06 -9.1304251542979123e-07 0 -3.4113860134110211e-06 1.0232241701905333e-06 0 -2.8571943450515975e-06 7.2773089044116077e-07 0 1.2481316459362574e-07 1.9196131002585876e-06 0 -9.5079210444926483e-08 1.4853838609229547e-06 0 1.4193378643449544e-08 1.2789826364025031e-06 0 -1.0463970085800644e-05 9.3245274849799528e-05 0 -1.1197875898794553e-05 0.00010974635689085087 0 -2.4402639434829567e-05 0.00010922796998044308 0 -2.6334347407720209e-05 -4.3481245501587971e-05 0 -2.8039799350563467e-05 -5.0817631006123266e-05 0 -2.2334916773732714e-05 -5.0943815602561139e-05 0 -1.0463970085800644e-05 9.3245274849799528e-05 0 -2.3464833402286887e-05 8.0200617772013244e-05 0 -1.1182079018481046e-05 7.7681473495325241e-05 0 -8.7659588735967519e-07 3.078105493941415e-06 0 -2.7595479392042505e-06 2.4135716771486548e-06 0 -1.3503732052374677e-06 1.5011675514866148e-06 0 -8.7659588735967519e-07 3.078105493941415e-06 0 -2.1268124304095748e-06 4.7992059712021464e-06 0 -2.7595479392042505e-06 2.4135716771486548e-06 0 -2.4780135762336309e-05 5.6093322593762223e-05 0 -1.8228421723032017e-05 6.7611675052938299e-05 0 -3.2096950276741565e-05 7.2792811617337902e-05 0 -2.3464833402286887e-05 8.0200617772013244e-05 0 -3.2096950276741565e-05 7.2792811617337902e-05 0 -1.8228421723032017e-05 6.7611675052938299e-05 0 -3.8173095959006502e-06 -2.3875817055375508e-07 0 -2.3028251444944042e-06 -6.9697684306833631e-07 0 -4.1536872043838858e-06 -6.2733699732903658e-07 0 -2.7890405046268195e-06 -1.1850189397893811e-07 0 -3.1896261820028556e-06 1.569664482206192e-07 0 -1.8125593226003084e-06 3.0316929331155583e-07 0 -1.241037870988025e-05 -1.7144759231894738e-05 0 -1.4638770205507478e-05 -2.2858149330504055e-05 0 -9.8631205806580499e-06 -2.2752552825509781e-05 0 -1.6954146394965507e-05 -2.0840995115418931e-05 0 -1.7181731690422644e-05 -2.1973553064582875e-05 0 -1.6276964387174042e-05 -2.0269709554351603e-05 0 -6.6980130703058107e-07 -1.8711772223388703e-05 0 -3.8013599235637827e-06 -2.2863080065982278e-05 0 -1.2169954984052834e-06 -2.2284684816965127e-05 0 -2.3356737132274383e-06 6.4156823506990891e-07 0 -2.8571943450515975e-06 7.2773089044116077e-07 0 -1.7359427689621232e-06 1.4952834560192131e-06 0 1.2481316459362574e-07 1.9196131002585876e-06 0 3.4434946409234422e-07 3.1037984003363517e-06 0 -1.0966731051287836e-07 2.1272383706561217e-06 0 -1.0393603578548487e-05 -2.3432012497898507e-05 0 -9.5596115326589991e-06 -2.1549776133683357e-05 0 -1.1882742234904629e-05 -2.1326284938855963e-05 0 -1.0797520065819218e-05 -1.9965853257757255e-05 0 -1.1882742234904629e-05 -2.1326284938855963e-05 0 -9.5596115326589991e-06 -2.1549776133683357e-05 0 -8.0070819063348179e-06 -1.2744348552876557e-05 0 -7.8617114900254512e-06 -1.61532114373103e-05 0 -5.5430981519911896e-06 -1.2780702153119743e-05 0 -4.407788844547621e-05 0.00015712994927273544 0 -5.9588444309473171e-05 0.00015530592621168529 0 -5.3230789480981698e-05 0.00013900340673176135 0 -1.6251976299829064e-05 -7.3893379161488019e-05 0 -9.9868760958958257e-06 -7.2820220356151848e-05 0 -1.1872371527797467e-05 -6.452783416149258e-05 0 -1.5611410832669672e-05 -2.0967567320623382e-05 0 -1.661824757511148e-05 -2.1567861647346286e-05 0 -1.4283657460979571e-05 -2.245837607586069e-05 0 -5.4402261791115672e-06 -2.6142833848225366e-05 0 -6.467222263986998e-06 -2.831968885292381e-05 0 -4.4188506178323768e-06 -2.8869803159296541e-05 0 -1.2110076077005988e-05 0.00015764264433479135 0 -2.6844660107731045e-05 0.00014947810441952081 0 -1.5251259662144781e-05 0.00013754578411872068 0 -2.9882570628576149e-05 -7.313311307302404e-05 0 -2.3160546672028329e-05 -6.9700863020583613e-05 0 -2.786174419013797e-05 -6.4014009522888108e-05 0 -2.5230905211280771e-07 6.2004569635485985e-07 0 -2.9468573478496109e-07 8.7627849951825607e-07 0 -1.5662294770355613e-07 5.9145456071123079e-07 0 -1.7283592927796194e-07 1.0828645170531077e-06 0 -1.5662294770355613e-07 5.9145456071123079e-07 0 -2.9468573478496109e-07 8.7627849951825607e-07 0 -5.0156551339537293e-06 0.00012080042303967178 0 -1.5251259662144781e-05 0.00013754578411872068 0 -1.6969323054994485e-05 0.00012048979703211407 0 -3.1657328969069859e-05 -5.6474881535561089e-05 0 -2.786174419013797e-05 -6.4014009522888108e-05 0 -2.6263663985217614e-05 -5.6118117892439145e-05 0 -2.0857605861050541e-06 -9.1763062696647406e-07 0 -2.3028251444944046e-06 -6.969768430683362e-07 0 -1.0547421134604842e-06 -5.6817083719888546e-07 0 -1.8787305329364122e-06 5.6456244120243927e-07 0 -8.9604056403777053e-07 3.1973250415393203e-07 0 -1.8125593226003084e-06 3.0316929331155583e-07 0 -1.0010609163048875e-05 3.4930384819939389e-05 0 -1.9925686980859691e-06 4.9723979584551453e-05 0 -1.3580035103289664e-05 5.2118507189171587e-05 0 -3.8173095959006502e-06 -2.3875817055375508e-07 0 -1.8299974582321867e-06 -3.2766485867896907e-07 0 -2.3028251444944042e-06 -6.9697684306833631e-07 0 -2.7890405046268195e-06 -1.1850189397893811e-07 0 -1.8125593226003084e-06 3.0316929331155583e-07 0 -1.3507283998984744e-06 6.0721005684235197e-08 0 -7.414654710862852e-05 0.00013864544041068496 0 -6.1361761964096945e-05 0.0001261910939310629 0 -5.3230789480981698e-05 0.00013900340673176135 0 -2.6597975963785281e-06 -6.2758860826737012e-05 0 -7.5703664962204683e-06 -5.7461386462218005e-05 0 -1.1872371527797467e-05 -6.452783416149258e-05 0 -7.0843342162428694e-06 1.5778671136950377e-05 0 -1.5960724771431201e-05 1.6785816781586027e-05 0 -9.0483321021801309e-06 1.1286959859985922e-05 0 -1.314707284500666e-05 8.9464604953019471e-06 0 -9.0483321021801309e-06 1.1286959859985924e-05 0 -1.5960724771431201e-05 1.6785816781586027e-05 0 -1.8763206920369128e-05 -2.7304073613214447e-05 0 -1.7066409491090954e-05 -1.9096314978726561e-05 0 -2.0929528074110687e-05 -2.258861952185946e-05 0 -4.2316587713449619e-06 -2.7489324686101662e-06 0 -3.9188166677777246e-06 -7.0304640424114866e-06 0 -1.976559828800014e-06 -4.4528445703691586e-06 0 -2.4780135762336309e-05 5.6093322593762223e-05 0 -3.0066987478286478e-05 4.7491288433189506e-05 0 -2.1698826480442415e-05 3.9586743697717711e-05 0 -2.4466000269525649e-05 2.6453665300661102e-05 0 -2.1698826480442415e-05 3.9586743697717711e-05 0 -2.9872943535962761e-05 3.808313817143696e-05 0 -1.7991578296206977e-05 -1.406470831182835e-05 0 -2.0688663770215573e-05 -1.8504044399374115e-05 0 -1.7066409491090954e-05 -1.9096314978726561e-05 0 -1.241037870988025e-05 -1.7144759231894738e-05 0 -9.8631205806580499e-06 -2.2752552825509781e-05 0 -8.3703023998277867e-06 -1.4981168028424143e-05 0 -1.5090495303083495e-05 -1.8983877198246909e-05 0 -1.6028541181353291e-05 -1.9186599234077847e-05 0 -1.6276964387174042e-05 -2.0269709554351603e-05 0 -4.6516602429239565e-06 -2.0318013759103788e-05 0 -3.8013599235637827e-06 -2.2863080065982278e-05 0 -2.4007629947948059e-06 -1.8549085952092044e-05 0 -5.1082854488280183e-06 -6.3445754003800663e-07 0 -7.0972993680359718e-06 -3.4775601430896401e-06 0 -5.7514881540251543e-06 -1.9192952252360528e-06 0 -7.9741377250375024e-06 -4.6081740302973257e-06 0 -8.9220084050179691e-06 -5.9588125602987606e-06 0 -7.0972993680359718e-06 -3.4775601430896401e-06 0 -4.3251649082280477e-07 4.5943234848993553e-06 0 -5.4057240373750842e-07 3.4212019925068649e-06 0 -1.9212891630802901e-06 2.977766878756948e-06 0 -8.2443748517569321e-06 -9.9071048855974507e-06 0 -6.6734494963260055e-06 -6.6662271011287708e-06 0 -9.0326382515981125e-06 -7.9697734451156755e-06 0 -1.2110076077005988e-05 0.00015764264433479135 0 -1.2246892977995097e-06 0.00014009276635410531 0 2.814480853445991e-06 0.00015624016592521436 0 -2.9882570628576149e-05 -7.313311307302404e-05 0 -3.4359169072064835e-05 -6.5348437411281564e-05 0 -3.6843980619853873e-05 -7.261277612981561e-05 0 -1.7182815488532128e-06 2.1824068428531656e-06 0 -1.9212891630802901e-06 2.977766878756948e-06 0 -5.4057240373750842e-07 3.4212019925068649e-06 0 -2.7887884316731235e-06 -1.2102288868327698e-05 0 -5.5430981519911896e-06 -1.2780702153119743e-05 0 -3.5991173804119082e-06 -1.4446639601048767e-05 0 -1.0797520065819218e-05 -1.9965853257757255e-05 0 -9.5596115326589991e-06 -2.1549776133683357e-05 0 -9.5691886426894119e-06 -1.8485106731046429e-05 0 -9.2611263642459435e-09 3.0713410518430227e-06 0 -7.3882220795441026e-07 2.3186633903600401e-06 0 -5.4057240373750842e-07 3.4212019925068649e-06 0 -4.3887874265638178e-07 -3.4444294561510047e-07 0 -4.8633865442753643e-07 -1.6691412381533068e-07 0 -8.8224599472044523e-07 -6.3499406502583792e-07 0 -3.442086039068185e-05 -2.6420789469207599e-05 0 -3.7168276086449039e-05 -3.3169040911275107e-05 0 -2.9629201252052736e-05 -2.8136795383816799e-05 0 -2.8979191482625182e-06 -4.2174317853370599e-07 0 -2.3293701225142988e-06 -7.1052392277112458e-07 0 -1.4283169627642904e-06 -4.4125601021193553e-07 0 1.4193378643449544e-08 1.2789826364025031e-06 0 -9.5079210444926483e-08 1.4853838609229547e-06 0 -2.0552243296904157e-07 7.0819024737483552e-07 0 -1.7182815488532128e-06 2.1824068428531656e-06 0 -3.4113860134110211e-06 1.0232241701905333e-06 0 -1.9212891630802901e-06 2.977766878756948e-06 0 -6.4538318935477838e-05 7.0595593308450436e-05 0 -5.9757033173672079e-05 5.55486640612333e-05 0 -4.8497485173268369e-05 6.018183103266146e-05 0 -4.1395097066984318e-07 6.0899450647114851e-07 0 -2.2372461022062295e-07 3.9898916454679067e-07 0 -1.6239571578634827e-07 2.6197442461341995e-07 0 -7.4837704088438577e-07 7.5630385749085811e-07 0 -1.0966731051287836e-07 2.1272383706561217e-06 0 -1.3503732052374677e-06 1.5011675514866148e-06 0 -1.0682283747595311e-05 -1.1599430579757235e-05 0 -1.1771874159042996e-05 -1.1684681616264131e-05 0 -1.2193336701053909e-05 -1.3930143465561481e-05 0 -2.6334347407720209e-05 -4.3481245501587971e-05 0 -3.1574180891850598e-05 -4.005650768892673e-05 0 -3.3539390506899873e-05 -4.8438081257660552e-05 0 -2.8979191482625182e-06 -4.2174317853370599e-07 0 -1.4283169627642904e-06 -4.4125601021193553e-07 0 -1.5651068485523486e-06 -6.7043338126792243e-09 0 -2.5230905211280771e-07 6.2004569635485985e-07 0 -1.9965815195740236e-07 3.0357658950920538e-07 0 -2.2372461022062295e-07 3.9898916454679067e-07 0 -2.899281235050269e-06 1.1108886597835646e-06 0 -1.3503732052374677e-06 1.5011675514866148e-06 0 -2.7595479392042505e-06 2.4135716771486548e-06 0 -1.1968792122970334e-05 -1.0667604649024556e-05 0 -1.1771874159042996e-05 -1.1684681616264131e-05 0 -1.0270901772335112e-05 -9.0900511466753258e-06 0 -1.5090495303083495e-05 -1.8983877198246909e-05 0 -1.4777988197156534e-05 -1.9949127211502137e-05 0 -1.3778710849640333e-05 -1.8020839073453469e-05 0 -1.1840720489185286e-05 2.1238864845263206e-06 0 -8.9816054662574809e-06 9.099912445180558e-07 0 -1.0143278748857422e-05 2.4645642487067783e-06 0 1.8188082167998614e-05 0.00013601119172518055 0 -1.2246892977995107e-06 0.00014009276635410531 0 6.8376223589251713e-06 0.00012623829200212778 0 -4.3275199541006746e-05 -6.4708665601033129e-05 0 -3.4359169072064835e-05 -6.5348437411281564e-05 0 -3.7427022929069646e-05 -5.9435759331767612e-05 0 -8.6745123059711875e-08 7.6403794011688557e-07 0 -2.0552243296904157e-07 7.0819024737483552e-07 0 -2.0031580979843139e-07 3.2184546293564412e-07 0 1.4193378643449544e-08 1.2789826364025031e-06 0 -2.0552243296904157e-07 7.0819024737483552e-07 0 -8.6745123059711875e-08 7.6403794011688557e-07 0 -4.9395402943823426e-05 0.00011959801485365489 0 -5.3230789480981698e-05 0.00013900340673176135 0 -6.1361761964096945e-05 0.0001261910939310629 0 -1.231365820009146e-05 -5.4756428313199817e-05 0 -1.1872371527797469e-05 -6.452783416149258e-05 0 -7.5703664962204683e-06 -5.7461386462218005e-05 0 -1.7283592927796194e-07 1.0828645170531077e-06 0 -5.6249184365283028e-07 1.3382977377941477e-06 0 -1.0433832616918865e-07 1.616221547915357e-06 0 -6.2960106104216584e-07 1.6845637929094327e-06 0 -1.0433832616918865e-07 1.616221547915357e-06 0 -5.6249184365283028e-07 1.3382977377941477e-06 0 -1.7283592927796194e-07 1.0828645170531077e-06 0 -8.6745123059711875e-08 7.6403794011688557e-07 0 -1.5662294770355613e-07 5.9145456071123079e-07 0 -7.3195123230457625e-06 -9.5389772252325702e-07 0 -7.3496266872476477e-06 -8.2998607330418952e-07 0 -5.609428278720617e-06 -2.1210171134635017e-07 0 -6.5325501032562468e-06 -2.1215853060895373e-06 0 -8.2064271619136924e-06 -4.1244174396224626e-06 0 -6.090872076920438e-06 -3.1687160536818373e-06 0 -7.3553105469992317e-06 -5.2729164154665016e-06 0 -6.0908720769204372e-06 -3.1687160536818373e-06 0 -8.2064271619136924e-06 -4.1244174396224626e-06 0 -7.3195123230457625e-06 -9.5389772252325702e-07 0 -5.609428278720617e-06 -2.1210171134635017e-07 0 -5.5070677085980293e-06 -3.9605775479141604e-07 0 -1.0010609163048875e-05 3.4930384819939389e-05 0 3.4266439764541231e-07 3.5880833242847328e-05 0 -1.9925686980859691e-06 4.9723979584551453e-05 0 -2.7114149520213388e-05 0.00013023180147227434 0 -2.6844660107731045e-05 0.00014947810441952081 0 -3.7884212368645068e-05 0.00014053462655029764 0 -2.23320969752436e-05 -6.0519405408452768e-05 0 -2.3160546672028329e-05 -6.9700863020583613e-05 0 -1.8261753851851511e-05 -6.5465920359146531e-05 0 -2.3704212609052815e-06 4.5933513997244817e-07 0 -1.9372057822220483e-06 7.8915379137973661e-07 0 -2.7859047901316781e-06 3.1914386871821071e-07 0 -2.3782420194580131e-10 1.2926961519411944e-10 0 -1.6239571578634827e-07 2.6197442461341995e-07 0 -2.2372461022062295e-07 3.9898916454679067e-07 0 -8.7659588735967519e-07 3.078105493941415e-06 0 2.5755303059273609e-07 5.2445841371031526e-06 0 -2.1268124304095748e-06 4.7992059712021464e-06 0 -5.6281527828720481e-06 -1.6190778712245964e-05 0 -5.5430981519911896e-06 -1.2780702153119743e-05 0 -7.8617114900254512e-06 -1.61532114373103e-05 0 -8.0070819063348179e-06 -1.2744348552876557e-05 0 -9.1690165518321669e-06 -1.1598069192358801e-05 0 -9.5479157777250658e-06 -1.4230936362012583e-05 0 -5.6403361509445274e-07 9.3274303718100854e-07 0 -1.0271411920445779e-06 1.0132106044322947e-06 0 -5.5824802111726317e-07 1.0623599420704259e-06 0 -2.441098452401508e-05 -2.2068639087989495e-05 0 -2.9629201252052736e-05 -2.8136795383816799e-05 0 -2.3263356734807656e-05 -2.7343571706062275e-05 0 -2.7876701749205575e-05 -3.2675750613869225e-05 0 -2.3263356734807656e-05 -2.7343571706062275e-05 0 -2.9629201252052736e-05 -2.8136795383816799e-05 0 -2.12909140639782e-10 -2.774618347014326e-11 0 -2.3782420194580922e-10 1.2926961519412714e-10 0 -1.452995812437462e-07 1.4110726650482553e-07 0 -4.2758694471125815e-05 7.0499538814283505e-05 0 -4.8497485173268369e-05 6.018183103266146e-05 0 -3.5938430785157987e-05 5.8553226408507366e-05 0 -3.7948160034657052e-05 4.6630540118989538e-05 0 -3.5938430785157987e-05 5.8553226408507366e-05 0 -4.8497485173268369e-05 6.018183103266146e-05 0 -1.5611410832669672e-05 -2.0967567320623382e-05 0 -1.4777988197156534e-05 -1.9949127211502137e-05 0 -1.6276964387174042e-05 -2.0269709554351603e-05 0 -5.4402261791115672e-06 -2.6142833848225366e-05 0 -3.8013599235637827e-06 -2.2863080065982278e-05 0 -5.9074977682984522e-06 -2.2785604490371282e-05 0 -5.1106202634957973e-06 3.7586738663112863e-06 0 -2.7595479392042505e-06 2.4135716771486548e-06 0 -2.1268124304095748e-06 4.7992059712021464e-06 0 -1.3296063759525282e-05 -2.0004136802331731e-05 0 -1.2035873552240942e-05 -1.9681338250124762e-05 0 -1.2491135201493343e-05 -1.8313811096391978e-05 0 1.3055629795451211e-06 7.4745935138232153e-06 0 1.7204287821688925e-06 9.6103785537985013e-06 0 2.0018563119350747e-06 8.9071894477270621e-06 0 -2.8979191482625182e-06 -4.2174317853370599e-07 0 -1.5651068485523486e-06 -6.7043338126792243e-09 0 -2.0709430355986912e-06 4.285530033045274e-07 0 -1.314707284500666e-05 8.9464604953019471e-06 0 -5.7701193820824377e-06 7.0445468943253734e-06 0 -9.0483321021801309e-06 1.1286959859985922e-05 0 1.4902446586312109e-05 5.1021063271175603e-05 0 6.1241242537083187e-06 6.1475971111066931e-05 0 -1.9925686980859691e-06 4.9723979584551453e-05 0 -2.3704212609052815e-06 4.5933513997244817e-07 0 -1.5589957793148755e-06 9.1239332801963071e-07 0 -1.9372057822220483e-06 7.8915379137973661e-07 0 -2.7114149520213388e-05 0.00013023180147227434 0 -1.5251259662144781e-05 0.00013754578411872068 0 -2.6844660107731045e-05 0.00014947810441952081 0 -2.23320969752436e-05 -6.0519405408452768e-05 0 -2.786174419013797e-05 -6.4014009522888108e-05 0 -2.3160546672028329e-05 -6.9700863020583613e-05 0 -1.2376337039632412e-06 9.6467223017792341e-07 0 -1.8093685484363793e-06 8.6423748764928035e-07 0 -1.9372057822220483e-06 7.8915379137973661e-07 0 -5.6702600484893602e-06 -3.8241727810465216e-06 0 -7.3344739796813664e-06 -5.3908899349225752e-06 0 -6.1080029147532308e-06 -3.1825898257127478e-06 0 -5.0156551339537293e-06 0.00012080042303967178 0 6.8376223589251713e-06 0.00012623829200212778 0 -1.2246892977995107e-06 0.00014009276635410531 0 -3.1657328969069859e-05 -5.6474881535561089e-05 0 -3.7427022929069646e-05 -5.9435759331767612e-05 0 -3.4359169072064835e-05 -6.5348437411281564e-05 0 -1.4477732244169083e-05 -4.25558694781183e-06 0 -1.75632642733308e-05 -5.934761644702799e-06 0 -1.4296189346744711e-05 -4.1314652397280078e-06 0 -2.8148574990095151e-05 9.7400902745447822e-06 0 -2.2645496256762972e-05 6.3082198563326782e-06 0 -2.1781356293647286e-05 6.3653036568309287e-06 0 -7.0843342162428694e-06 1.5778671136950377e-05 0 -8.727219298628913e-06 2.3878417332964438e-05 0 -1.5264731000885859e-05 2.5381045161941332e-05 0 -5.6471244909690254e-06 -2.0742258589241615e-07 0 -7.3118861037852236e-06 -9.4959932912594743e-07 0 -6.465253581996435e-06 -7.7847698225015358e-07 0 -1.7354856296484051e-05 -2.3077300877807542e-05 0 -1.6076751654170146e-05 -2.277748474471757e-05 0 -1.661824757511148e-05 -2.1567861647346286e-05 0 -1.7354856296484051e-05 -2.3077300877807542e-05 0 -1.661824757511148e-05 -2.1567861647346286e-05 0 -1.7421962927804545e-05 -2.2576076891642923e-05 0 -2.1915551384022636e-06 -2.972242183128962e-05 0 -1.923446341956298e-06 -2.6099717887095668e-05 0 -4.4188506178323768e-06 -2.8869803159296541e-05 0 -2.1915551384022636e-06 -2.972242183128962e-05 0 -4.4188506178323768e-06 -2.8869803159296541e-05 0 -4.5515454045959007e-06 -3.1024547695853507e-05 0 -1.5611410832669672e-05 -2.0967567320623382e-05 0 -1.382433369654792e-05 -2.1209896307801077e-05 0 -1.4777988197156534e-05 -1.9949127211502137e-05 0 -5.4402261791115672e-06 -2.6142833848225366e-05 0 -5.9074977682984522e-06 -2.2785604490371282e-05 0 -7.0532557776627117e-06 -2.5191653183948142e-05 0 6.9675067316054636e-07 -1.2182350908545258e-05 0 -1.8158360396630392e-06 -1.5241009519307084e-05 0 3.8897718615956461e-08 -1.5218101729347164e-05 0 -1.5922957734011111e-05 -1.6989227109681145e-05 0 -1.6523902642144e-05 -1.9217072039717835e-05 0 -1.4863661725428508e-05 -1.721444865964231e-05 0 5.0695030342070395e-06 1.2356654035423131e-06 0 7.8058146865272221e-07 -2.0909404747214047e-06 0 3.600010060714958e-06 -3.5440895634701236e-06 0 -1.2110076077005988e-05 0.00015764264433479135 0 -7.6403563844027302e-07 0.00017175112732089386 0 -1.459470606624626e-05 0.0001747667935516068 0 -4.407788844547621e-05 0.00015712994927273544 0 -4.1608205010471021e-05 0.00017370990609997622 0 -5.6618879376758558e-05 0.00017022368515604748 0 -2.9882570628576149e-05 -7.313311307302404e-05 0 -3.5453909578047573e-05 -7.9303495045510399e-05 0 -2.8810620523146576e-05 -8.0944301119877029e-05 0 -1.6251976299829064e-05 -7.3893379161488019e-05 0 -1.7307582973749473e-05 -8.1774896665953557e-05 0 -1.1584311685260419e-05 -8.0543470504308967e-05 0 -9.7591403186312045e-07 1.094440112840945e-06 0 -5.5824802111726317e-07 1.0623599420704259e-06 0 -1.0271411920445779e-06 1.0132106044322947e-06 0 -1.2110076077005988e-05 0.00015764264433479135 0 2.8144808534459923e-06 0.00015624016592521436 0 -7.6403563844027154e-07 0.00017175112732089386 0 -2.9882570628576149e-05 -7.313311307302404e-05 0 -3.6843980619853873e-05 -7.261277612981561e-05 0 -3.5453909578047573e-05 -7.9303495045510399e-05 0 -5.1082854488280183e-06 -6.3445754003800663e-07 0 -3.7916291740411967e-06 1.2668621150857117e-06 0 -3.4113860134110211e-06 1.0232241701905333e-06 0 -4.407788844547621e-05 0.00015712994927273544 0 -5.6618879376758558e-05 0.00017022368515604748 0 -5.9588444309473171e-05 0.00015530592621168529 0 -1.6251976299829064e-05 -7.3893379161488019e-05 0 -1.1584311685260419e-05 -8.0543470504308967e-05 0 -9.9868760958958257e-06 -7.2820220356151848e-05 0 -1.0856531363743385e-05 -3.1025481089600112e-05 0 -6.3487616088137985e-06 -2.6610146917510626e-05 0 -9.8631205806580499e-06 -2.2752552825509781e-05 0 -1.0295645259084109e-05 -7.9181418323436817e-06 0 -1.0270901772335112e-05 -9.0900511466753258e-06 0 -8.9220084050179691e-06 -5.9588125602987606e-06 0 -8.8835425609506056e-06 -7.2584356939331843e-06 0 -8.9220084050179691e-06 -5.9588125602987606e-06 0 -1.0270901772335112e-05 -9.0900511466753258e-06 0 -2.899281235050269e-06 1.1108886597835646e-06 0 -4.2375576229337425e-06 2.2692876277922716e-07 0 -2.0709430355986912e-06 4.285530033045274e-07 0 -2.4780135762336309e-05 5.6093322593762223e-05 0 -1.3580035103289664e-05 5.2118507189171587e-05 0 -1.8228421723032017e-05 6.7611675052938299e-05 0 -3.7168276086449039e-05 -3.3169040911275107e-05 0 -3.2936891835555409e-05 -3.461682607458462e-05 0 -2.9629201252052736e-05 -2.8136795383816799e-05 0 -1.1390325555426644e-06 7.69716402415289e-06 0 -5.7701193820824377e-06 7.0445468943253734e-06 0 -2.1268124304095748e-06 4.7992059712021464e-06 0 -5.1106202634957973e-06 3.7586738663112863e-06 0 -2.1268124304095748e-06 4.7992059712021464e-06 0 -5.7701193820824377e-06 7.0445468943253734e-06 0 1.2481316459362574e-07 1.9196131002585876e-06 0 -3.7830246435188971e-09 2.302205288595802e-06 0 3.4434946409234422e-07 3.1037984003363517e-06 0 -9.69885402708941e-06 -1.6444098698922133e-05 0 -9.5691886426894119e-06 -1.8485106731046429e-05 0 -7.8617114900254512e-06 -1.61532114373103e-05 0 -8.1662579869751136e-06 -1.9593818986267045e-05 0 -7.8617114900254512e-06 -1.61532114373103e-05 0 -9.5691886426894119e-06 -1.8485106731046429e-05 0 -4.7725292178138178e-05 3.0653404252757299e-05 0 -4.1066806819578754e-05 2.1480084650973244e-05 0 -3.5860470258296156e-05 2.3299990748504601e-05 0 -2.4386150058297754e-05 -1.1366981037938058e-05 0 -2.7890794424796162e-05 -1.5427524246676414e-05 0 -2.2272254778082877e-05 -1.1939419410230284e-05 0 -5.9383907956657868e-10 -2.5355569790690603e-10 0 -4.1101398086978962e-10 -1.9662745928386844e-10 0 -3.6152566951500815e-07 -3.8839068080399857e-07 0 -5.3169751049471988e-10 2.4717270301393474e-10 0 -6.6563532668605863e-10 2.4046120980642834e-10 0 -5.3586058144335915e-07 5.1064922577496006e-07 0 -8.7659588735967519e-07 3.078105493941415e-06 0 -1.0966731051287822e-07 2.1272383706561217e-06 0 1.7663097082763201e-07 3.4741663145190467e-06 0 -9.2611263642459435e-09 3.0713410518430227e-06 0 3.4434946409234422e-07 3.1037984003363517e-06 0 -3.7830246435188971e-09 2.302205288595802e-06 0 1.2481316459362574e-07 1.9196131002585876e-06 0 -1.0966731051287839e-07 2.1272383706561212e-06 0 -9.5079210444926483e-08 1.4853838609229547e-06 0 -5.2763015786819642e-06 -6.0242441125507548e-07 0 -7.4715075095203277e-06 2.8960041766735675e-08 0 -5.8317482277476964e-06 -1.6987648951996743e-07 0 -4.1665002903552793e-06 1.4775477761508219e-07 0 -4.2511916018433089e-06 -2.4106491829006703e-07 0 -5.5070677085980293e-06 -3.9605775479141604e-07 0 -4.5567570644262696e-06 6.654508998690544e-05 0 -1.9925686980859691e-06 4.9723979584551453e-05 0 6.1241242537083187e-06 6.1475971111066931e-05 0 -5.2763015786819642e-06 -6.0242441125507548e-07 0 -5.8317482277476956e-06 -1.6987648951996749e-07 0 -4.1536872043838858e-06 -6.2733699732903658e-07 0 -4.1665002903552793e-06 1.4775477761508219e-07 0 -3.1896261820028556e-06 1.569664482206192e-07 0 -4.2511916018433089e-06 -2.4106491829006703e-07 0 -1.2969460783003737e-05 -1.6274253738223162e-05 0 -1.3778710849640333e-05 -1.8020839073453469e-05 0 -1.2491135201493343e-05 -1.8313811096391978e-05 0 -1.0010609163048875e-05 3.4930384819939389e-05 0 -2.843578065800841e-06 2.1829783630108581e-05 0 3.4266439764541231e-07 3.5880833242847328e-05 0 -7.4837704088438577e-07 7.5630385749085811e-07 0 -9.5079210444926483e-08 1.4853838609229547e-06 0 -1.0966731051287836e-07 2.1272383706561217e-06 0 -5.6281527828720481e-06 -1.6190778712245964e-05 0 -3.5991173804119082e-06 -1.4446639601048767e-05 0 -5.5430981519911896e-06 -1.2780702153119743e-05 0 -1.253573963691427e-09 -2.8923921617124219e-10 0 -8.7685716648749511e-10 -3.7464754762375959e-10 0 -8.9233656233930634e-07 -6.6059309499663497e-07 0 -8.5844468227060897e-10 2.5633654860596658e-10 0 -1.0856334709541742e-09 1.627360527746337e-10 0 -8.5712126990357471e-07 4.5175899960571711e-07 0 -9.0459333387139976e-06 -2.2465003643961336e-06 0 -1.1698847050389782e-05 -3.0649303533940901e-06 0 -9.4212381519675985e-06 -1.8866756020298908e-06 0 -1.7808053088215867e-05 4.083736641406518e-06 0 -1.3466318776623087e-05 2.7292552934188483e-06 0 -1.4087878256418199e-05 2.2546244710410039e-06 0 -1.1860409602894779e-05 -9.5358841383387669e-06 0 -1.4039606921453689e-05 -8.1861265003826339e-06 0 -1.5399149762702022e-05 -1.1341869837280436e-05 0 -2.4212511432843065e-06 -2.2584639257491972e-05 0 -6.0408649000377779e-06 -1.9930816007688189e-05 0 -6.3487616088137985e-06 -2.6610146917510626e-05 0 -4.4853903536569438e-06 -9.1304251542979123e-07 0 -4.8195009802444647e-06 -2.0801690166792673e-06 0 -6.1080029147532308e-06 -3.1825898257127478e-06 0 -1.3595726339796747e-06 1.3775334067687593e-06 0 -7.3882220795441026e-07 2.3186633903600406e-06 0 -6.2960106104216584e-07 1.6845637929094327e-06 0 -1.7359427689621232e-06 1.4952834560192131e-06 0 -7.3882220795441037e-07 2.3186633903600406e-06 0 -1.3595726339796747e-06 1.3775334067687593e-06 0 6.9075472012127541e-07 4.606317835810363e-06 0 2.5755303059273609e-07 5.2445841371031526e-06 0 1.7663097082763201e-07 3.4741663145190467e-06 0 -8.7659588735967519e-07 3.078105493941415e-06 0 1.7663097082763199e-07 3.4741663145190462e-06 0 2.5755303059273609e-07 5.2445841371031526e-06 0 -7.5827413456850292e-06 -2.2333764921936912e-05 0 -8.964070265687094e-06 -2.3995530156139156e-05 0 -7.0532557776627117e-06 -2.5191653183948142e-05 0 -1.3653083381291273e-05 -1.1570668959150758e-05 0 -1.1968792122970334e-05 -1.0667604649024556e-05 0 -1.1528382177585371e-05 -9.1131686070908023e-06 0 -5.6702600484893602e-06 -3.8241727810465216e-06 0 -6.0457837407722472e-06 -5.8221480716686801e-06 0 -7.3344739796813664e-06 -5.3908899349225752e-06 0 -6.2447312018101045e-06 -8.2122374759221483e-06 0 -7.3344739796813673e-06 -5.3908899349225752e-06 0 -6.0457837407722472e-06 -5.8221480716686801e-06 0 -6.5969067088654446e-06 -1.7108371749300705e-06 0 -9.0459333387139976e-06 -2.2465003643961341e-06 0 -7.6380637172349951e-06 -1.4554335869436082e-06 0 -1.3466318776623087e-05 2.7292552934188483e-06 0 -9.6253345087326592e-06 1.9154900556445558e-06 0 -1.119581885231228e-05 1.5384563364025829e-06 0 -9.6202685238098206e-06 -2.7032016552252497e-05 0 -7.6896097100464859e-06 -2.8599172270982823e-05 0 -9.3343217547032987e-06 -2.5761937488358929e-05 0 -5.7701193820824377e-06 7.0445468943253734e-06 0 -4.2095635927883246e-06 1.0171503131432514e-05 0 -9.0483321021801309e-06 1.1286959859985922e-05 0 -1.7283592927796194e-07 1.0828645170531077e-06 0 1.4193378643449539e-08 1.2789826364025031e-06 0 -8.6745123059711875e-08 7.6403794011688557e-07 0 -2.3028251444944042e-06 -6.9697684306833631e-07 0 -3.4361038706726516e-06 -8.7078210329574894e-07 0 -4.1536872043838858e-06 -6.2733699732903658e-07 0 -1.8125593226003084e-06 3.0316929331155583e-07 0 -3.189626182002856e-06 1.5696644822061914e-07 0 -2.8274577555007597e-06 4.0746514395059235e-07 0 -1.2376337039632412e-06 9.6467223017792341e-07 0 -1.5550375946646434e-06 9.2769851226124807e-07 0 -1.8093685484363796e-06 8.6423748764928035e-07 0 -4.4853903536569438e-06 -9.1304251542979123e-07 0 -4.775142141920434e-06 -6.6947050764390043e-07 0 -3.4113860134110211e-06 1.0232241701905333e-06 0 -4.6516602429239565e-06 -2.0318013759103788e-05 0 -6.2206107001831561e-06 -1.9083704691581699e-05 0 -5.9074977682984522e-06 -2.2785604490371282e-05 0 -2.4760027009047622e-06 7.2058388323356099e-07 0 -1.8093685484363796e-06 8.6423748764928035e-07 0 -1.5550375946646434e-06 9.2769851226124807e-07 0 -7.1231966939403271e-05 0.00010396414051422117 0 -5.3922774189437252e-05 9.4543317041158889e-05 0 -5.875746160975102e-05 0.00011067885824836238 0 -1.6639153395406996e-06 -4.5254170724409135e-05 0 -8.5215425706079627e-06 -4.2103610783982337e-05 0 -7.644561679428298e-06 -4.9726235798948907e-05 0 -1.6030601133510246e-06 -3.7199206164817789e-05 0 -7.0467701076790512e-06 -3.4602664390614531e-05 0 -8.5215425706079627e-06 -4.2103610783982337e-05 0 -6.8362388813244744e-06 -4.413853384848852e-06 0 -5.7514881540251543e-06 -1.9192952252360528e-06 0 -7.0972993680359718e-06 -3.4775601430896401e-06 0 -1.3653083381291273e-05 -1.1570668959150758e-05 0 -1.3420952579097706e-05 -1.2887173413280708e-05 0 -1.1968792122970334e-05 -1.0667604649024556e-05 0 -2.3704212609052815e-06 4.5933513997244817e-07 0 -3.4575571492859914e-06 -5.8437913924035322e-07 0 -2.5754779225934786e-06 2.3646085572599752e-07 0 -5.1082854488280183e-06 -6.3445754003800663e-07 0 -3.4113860134110211e-06 1.0232241701905333e-06 0 -4.775142141920434e-06 -6.6947050764390032e-07 0 1.605676151471222e-05 0.00017168038575666127 0 5.7497780910905231e-06 0.0001806075303716136 0 -7.6403563844027154e-07 0.00017175112732089386 0 -4.3630599758705083e-05 -8.0207754637100218e-05 0 -3.8762403171306296e-05 -8.3374678635389385e-05 0 -3.5453909578047573e-05 -7.9303495045510399e-05 0 -4.3894443006746567e-06 -8.0429196692405065e-05 0 -1.1584311685260419e-05 -8.0543470504308967e-05 0 -8.8577465338262697e-06 -8.4765739796810054e-05 0 -7.4693347602739586e-05 0.00017219427830588414 0 -5.6618879376758558e-05 0.00017022368515604748 0 -6.3927111626615191e-05 0.00017919694647989089 0 -2.3356737132274383e-06 6.4156823506990891e-07 0 -1.789129590553519e-06 8.7123153551100382e-07 0 -2.5754779225934786e-06 2.3646085572599752e-07 0 -2.3704212609052815e-06 4.5933513997244817e-07 0 -2.5754779225934786e-06 2.3646085572599752e-07 0 -1.789129590553519e-06 8.7123153551100382e-07 0 -4.7638566716763714e-06 -2.1810259970285536e-06 0 -3.4575571492859914e-06 -5.8437913924035301e-07 0 -4.0432757352458891e-06 -1.0052364524185366e-06 0 -2.0716157666111781e-05 7.611050336286022e-06 0 -2.1781356293647286e-05 6.3653036568309287e-06 0 -1.5558174181985715e-05 3.9491523504651663e-06 0 -1.7365276964833721e-05 3.6485798617148172e-06 0 -1.5558174181985715e-05 3.9491523504651655e-06 0 -2.1781356293647286e-05 6.3653036568309287e-06 0 -5.1106202634957973e-06 3.7586738663112863e-06 0 -7.6614043021496984e-06 2.8485394998040508e-06 0 -4.7864503053467341e-06 1.6730681116690001e-06 0 -6.5325501032562468e-06 -2.1215853060895373e-06 0 -4.7449507597176716e-06 -7.0414870663052405e-07 0 -5.7130650796473047e-06 -7.8624787731724636e-07 0 -5.6702600484893602e-06 -3.8241727810465216e-06 0 -5.6076726666596467e-06 -4.1982250589494985e-06 0 -6.0457837407722472e-06 -5.8221480716686801e-06 0 -4.1665002903552793e-06 1.4775477761508219e-07 0 -3.1055958454997901e-06 5.6341431826173237e-07 0 -2.8274577555007597e-06 4.0746514395059235e-07 0 -1.8787305329364122e-06 5.6456244120243927e-07 0 -2.8274577555007597e-06 4.0746514395059235e-07 0 -3.1055958454997906e-06 5.6341431826173237e-07 0 -2.0857605861050541e-06 -9.1763062696647406e-07 0 -3.2883243602075529e-06 -8.8322162166868142e-07 0 -3.4361038706726516e-06 -8.7078210329574883e-07 0 -5.2763015786819642e-06 -6.0242441125507548e-07 0 -3.4361038706726512e-06 -8.7078210329574883e-07 0 -3.2883243602075529e-06 -8.8322162166868142e-07 0 -2.7876701749205575e-05 -3.2675750613869225e-05 0 -3.1574180891850598e-05 -4.005650768892673e-05 0 -2.5612817964906648e-05 -3.6816155041353841e-05 0 -2.6334347407720209e-05 -4.3481245501587971e-05 0 -2.5612817964906648e-05 -3.6816155041353841e-05 0 -3.1574180891850598e-05 -4.005650768892673e-05 0 -6.7469201772093581e-07 -6.2179618832988065e-07 0 -3.6152566951500815e-07 -3.8839068080399857e-07 0 -8.8224599472044523e-07 -6.3499406502583792e-07 0 -4.3887874265638178e-07 -3.4444294561510047e-07 0 -8.8224599472044523e-07 -6.3499406502583792e-07 0 -3.6152566951500815e-07 -3.8839068080399857e-07 0 -8.6623826867793264e-07 7.7928727643166441e-07 0 -5.3586058144335915e-07 5.1064922577496006e-07 0 -1.2260120843974107e-06 8.0915191954023993e-07 0 -7.6433032758904644e-07 5.4503242056761154e-07 0 -1.2260120843974107e-06 8.0915191954023993e-07 0 -5.3586058144335915e-07 5.1064922577496006e-07 0 -2.7114149520213388e-05 0.00013023180147227434 0 -1.6969323054994488e-05 0.00012048979703211407 0 -1.5251259662144781e-05 0.00013754578411872068 0 -2.23320969752436e-05 -6.0519405408452768e-05 0 -2.6263663985217617e-05 -5.6118117892439145e-05 0 -2.786174419013797e-05 -6.4014009522888108e-05 0 -3.5294648811448556e-06 5.1440573131977181e-07 0 -2.690327227177996e-06 6.9811787980964691e-07 0 -3.1055958454997906e-06 5.6341431826173237e-07 0 -2.8979191482625182e-06 -4.2174317853370599e-07 0 -3.2883243602075529e-06 -8.8322162166868142e-07 0 -2.3293701225142988e-06 -7.1052392277112458e-07 0 -6.5325501032562468e-06 -2.1215853060895373e-06 0 -6.090872076920438e-06 -3.1687160536818373e-06 0 -4.9573547699935102e-06 -1.5663455855062938e-06 0 -4.1665002903552793e-06 1.4775477761508219e-07 0 -4.4794893967564378e-06 2.2465102053871238e-07 0 -3.1055958454997906e-06 5.6341431826173237e-07 0 -5.2763015786819642e-06 -6.0242441125507548e-07 0 -3.2883243602075529e-06 -8.8322162166868142e-07 0 -4.9917692558564183e-06 -5.1194239291310592e-07 0 -6.2447312018101045e-06 -8.2122374759221483e-06 0 -8.6080108708824087e-06 -6.2207690609155899e-06 0 -7.3344739796813664e-06 -5.3908899349225752e-06 0 -2.3704212609052815e-06 4.5933513997244817e-07 0 -3.1915051045197658e-06 -1.677898574218424e-07 0 -3.4575571492859914e-06 -5.8437913924035322e-07 0 -1.4834693542432869e-09 -5.4731249994054817e-10 0 -1.253573963691427e-09 -2.8923921617124219e-10 0 -1.0547421134604842e-06 -5.6817083719888546e-07 0 -1.0856334709541742e-09 1.627360527746337e-10 0 -1.1736913908570235e-09 2.8854808657367886e-10 0 -8.9604056403777053e-07 3.1973250415393203e-07 0 -1.1390325555426644e-06 7.69716402415289e-06 0 -2.1268124304095748e-06 4.7992059712021464e-06 0 2.5755303059273609e-07 5.2445841371031526e-06 0 -1.0393603578548487e-05 -2.3432012497898507e-05 0 -1.0714951570125182e-05 -2.4948788497425988e-05 0 -9.3343217547032987e-06 -2.5761937488358929e-05 0 -6.5325501032562468e-06 -2.1215853060895373e-06 0 -7.4810448531955613e-06 -1.8049535169918275e-06 0 -8.9792599334329304e-06 -3.286238307168489e-06 0 -9.8631205806580499e-06 -2.2752552825509781e-05 0 -6.3487616088137985e-06 -2.6610146917510626e-05 0 -6.0408649000377779e-06 -1.9930816007688189e-05 0 -2.3356737132274383e-06 6.4156823506990891e-07 0 -1.3595726339796747e-06 1.3775334067687593e-06 0 -1.789129590553519e-06 8.7123153551100382e-07 0 -4.0321651383737114e-06 -1.3488289602268464e-06 0 -3.1676736105900956e-06 -3.1100631516645103e-07 0 -3.4575571492859914e-06 -5.8437913924035322e-07 0 -3.8173095959006502e-06 -2.3875817055375508e-07 0 -5.7141158305256179e-06 5.9218779997747975e-07 0 -2.7289247327281334e-06 2.3704510294468215e-07 0 -2.7890405046268195e-06 -1.1850189397893811e-07 0 -1.9407887265860791e-06 -3.6818254267125203e-07 0 -4.018739083690739e-06 -7.5608589390020811e-07 0 -7.3553105469992317e-06 -5.2729164154665016e-06 0 -6.6734494963260055e-06 -6.6662271011287716e-06 0 -5.6076726666596467e-06 -4.1982250589494985e-06 0 -6.2960106104216584e-07 1.6845637929094327e-06 0 -1.082185040399261e-06 1.2103786936800027e-06 0 -1.3595726339796747e-06 1.3775334067687593e-06 0 -3.8176463357399423e-06 -4.3034222754621878e-07 0 -4.7449507597176716e-06 -7.0414870663052416e-07 0 -4.9573547699935102e-06 -1.5663455855062938e-06 0 -1.3842304026740312e-05 -4.4664421227057108e-06 0 -1.4274545990979774e-05 -6.0815850828097891e-06 0 -1.1427578103865394e-05 -4.0649428294031607e-06 0 -6.8438883607072003e-05 8.6952987565500097e-05 0 -5.445098665949126e-05 7.9406388025545036e-05 0 -5.3922774189437252e-05 9.4543317041158889e-05 0 -7.3553105469992317e-06 -5.2729164154665016e-06 0 -8.2064271619136924e-06 -4.1244174396224626e-06 0 -9.9944577378578081e-06 -6.3597250069828908e-06 0 -7.0972993680359718e-06 -3.4775601430896401e-06 0 -8.9220084050179691e-06 -5.9588125602987606e-06 0 -7.882092223764956e-06 -5.3270610490789196e-06 0 -6.5325501032562468e-06 -2.1215853060895373e-06 0 -8.9792599334329304e-06 -3.286238307168489e-06 0 -8.2064271619136924e-06 -4.1244174396224626e-06 0 -1.789129590553519e-06 8.7123153551100382e-07 0 -1.3595726339796747e-06 1.3775334067687593e-06 0 -1.082185040399261e-06 1.2103786936800027e-06 0 -1.0295645259084109e-05 -7.9181418323436817e-06 0 -1.1528382177585372e-05 -9.1131686070908023e-06 0 -1.1968792122970334e-05 -1.0667604649024556e-05 0 -1.1390325555426644e-06 7.69716402415289e-06 0 2.0018563119350747e-06 8.9071894477270621e-06 0 -3.1594678836462467e-07 1.185726599213983e-05 0 -6.5325501032562468e-06 -2.1215853060895373e-06 0 -5.7130650796473047e-06 -7.8624787731724647e-07 0 -7.4810448531955613e-06 -1.8049535169918275e-06 0 -7.3144455760056746e-05 0.00012129862789457786 0 -7.1231966939403271e-05 0.00010396414051422117 0 -5.875746160975102e-05 0.00011067885824836238 0 -1.6639153395406996e-06 -4.5254170724409135e-05 0 -7.644561679428298e-06 -4.9726235798948907e-05 0 -1.9709555241515417e-06 -5.3767340689131612e-05 0 -1.8312105498985518e-06 -2.9649702967699147e-05 0 -7.0467701076790512e-06 -3.4602664390614531e-05 0 -1.6030601133510246e-06 -3.7199206164817789e-05 0 -1.314707284500666e-05 8.9464604953019471e-06 0 -2.0649817470136459e-05 1.0841217248656981e-05 0 -1.6310072983212418e-05 6.8029161804200254e-06 0 5.0695030342070395e-06 1.2356654035423131e-06 0 4.9518869939502898e-07 5.0413232860899594e-06 0 7.8058146865272221e-07 -2.0909404747214047e-06 0 -1.3842304026740312e-05 -4.4664421227057108e-06 0 -1.4296189346744711e-05 -4.1314652397280078e-06 0 -1.6688161010121102e-05 -5.6778779291480404e-06 0 -2.0716157666111781e-05 7.611050336286022e-06 0 -2.6083036774332054e-05 9.4122585895883907e-06 0 -2.1781356293647286e-05 6.3653036568309287e-06 0 -1.3842304026740312e-05 -4.4664421227057108e-06 0 -1.6688161010121102e-05 -5.6778779291480404e-06 0 -1.7404454209232076e-05 -6.8974641055590495e-06 0 -2.0716157666111781e-05 7.611050336286022e-06 0 -2.6915956853663461e-05 1.2138109952014087e-05 0 -2.6083036774332054e-05 9.4122585895883907e-06 0 -2.7890405046268195e-06 -1.1850189397893811e-07 0 -1.3507283998984744e-06 6.0721005684235197e-08 0 -1.9407887265860791e-06 -3.6818254267125203e-07 0 -3.8173095959006502e-06 -2.3875817055375508e-07 0 -2.7289247327281334e-06 2.3704510294468215e-07 0 -1.8299974582321867e-06 -3.2766485867896907e-07 0 -4.0321651383737114e-06 -1.3488289602268464e-06 0 -4.9086250680530079e-06 -2.7362329897780729e-06 0 -4.8195009802444647e-06 -2.0801690166792673e-06 0 -5.6702600484893602e-06 -3.8241727810465216e-06 0 -4.8195009802444647e-06 -2.0801690166792673e-06 0 -4.9086250680530079e-06 -2.7362329897780729e-06 0 -1.6523902642144e-05 -1.9217072039717835e-05 0 -1.6028541181353291e-05 -1.9186599234077847e-05 0 -1.4863661725428508e-05 -1.721444865964231e-05 0 3.8897718615956461e-08 -1.5218101729347164e-05 0 -1.8158360396630394e-06 -1.5241009519307084e-05 0 -2.4007629947948059e-06 -1.8549085952092044e-05 0 3.600010060714958e-06 -3.5440895634701236e-06 0 7.8058146865272232e-07 -2.0909404747214042e-06 0 6.2834367116931088e-07 -6.0337718207898409e-06 0 6.9675067316054636e-07 -1.2182350908545258e-05 0 -7.9328945481060212e-07 -1.2001898362681821e-05 0 -1.8158360396630394e-06 -1.5241009519307084e-05 0 -1.5922957734011111e-05 -1.6989227109681145e-05 0 -1.4863661725428508e-05 -1.721444865964231e-05 0 -1.4317799969517854e-05 -1.5106463328932911e-05 0 -6.5325501032562468e-06 -2.1215853060895373e-06 0 -4.9573547699935102e-06 -1.5663455855062936e-06 0 -4.7449507597176716e-06 -7.0414870663052405e-07 0 -4.7638566716763714e-06 -2.1810259970285536e-06 0 -5.6076726666596467e-06 -4.1982250589494985e-06 0 -4.9086250680530079e-06 -2.7362329897780729e-06 0 -5.6702600484893602e-06 -3.8241727810465216e-06 0 -4.9086250680530079e-06 -2.7362329897780729e-06 0 -5.6076726666596467e-06 -4.1982250589494985e-06 0 -2.3356737132274383e-06 6.4156823506990891e-07 0 -3.5899761206402249e-06 -5.1461614624127239e-07 0 -2.8571943450515975e-06 7.2773089044116077e-07 0 -6.8438883607072003e-05 8.6952987565500097e-05 0 -6.4538318935477838e-05 7.0595593308450436e-05 0 -5.445098665949126e-05 7.9406388025545036e-05 0 -5.1082854488280183e-06 -6.3445754003800663e-07 0 -4.775142141920434e-06 -6.6947050764390011e-07 0 -6.1337308535662985e-06 -2.274030845872497e-06 0 -7.0843342162428694e-06 1.5778671136950377e-05 0 -4.2095635927883238e-06 1.0171503131432514e-05 0 -3.1594678836462467e-07 1.185726599213983e-05 0 -1.1390325555426644e-06 7.69716402415289e-06 0 -3.1594678836462467e-07 1.185726599213983e-05 0 -4.2095635927883246e-06 1.0171503131432514e-05 0 -2.4212511432843065e-06 -2.2584639257491972e-05 0 -6.3487616088137985e-06 -2.6610146917510626e-05 0 -1.8312105498985518e-06 -2.9649702967699147e-05 0 -3.4379435715729133e-05 1.4519592815432269e-05 0 -2.6083036774332054e-05 9.4122585895883907e-06 0 -2.6915956853663461e-05 1.2138109952014087e-05 0 -2.0900774770472414e-05 -8.2088712062447936e-06 0 -1.7404454209232073e-05 -6.8974641055590495e-06 0 -1.6688161010121102e-05 -5.6778779291480404e-06 0 -4.4853903536569438e-06 -9.1304251542979123e-07 0 -6.1337308535662985e-06 -2.2740308458724966e-06 0 -4.775142141920434e-06 -6.6947050764390032e-07 0 -3.7681828889946413e-05 9.3866196724609732e-05 0 -5.3922774189437252e-05 9.4543317041158889e-05 0 -4.4075069145138461e-05 8.2064345265256861e-05 0 -3.7681828889946413e-05 9.3866196724609732e-05 0 -4.7367980087767836e-05 0.00010552822390247911 0 -5.3922774189437252e-05 9.4543317041158889e-05 0 -1.4986935139650489e-05 -4.2668358999221456e-05 0 -1.2065826249681425e-05 -4.7759685761102785e-05 0 -8.5215425706079627e-06 -4.2103610783982337e-05 0 -1.4986935139650489e-05 -4.2668358999221456e-05 0 -8.5215425706079627e-06 -4.2103610783982331e-05 0 -1.140905349178718e-05 -3.7332881762392182e-05 0 -1.9709555241515417e-06 -5.3767340689131612e-05 0 -7.5703664962204683e-06 -5.7461386462218005e-05 0 -2.6597975963785281e-06 -6.2758860826737012e-05 0 -7.414654710862852e-05 0.00013864544041068496 0 -7.3144455760056746e-05 0.00012129862789457786 0 -6.1361761964096945e-05 0.0001261910939310629 0 -1.9951091569178923e-06 8.1183665682388437e-07 0 -1.7269685319580904e-06 7.3510978756068922e-07 0 -2.6903272271779964e-06 6.9811787980964691e-07 0 -1.5245449140584813e-06 -7.4611605522666882e-07 0 -2.3293701225142988e-06 -7.1052392277112458e-07 0 -1.5408668856122714e-06 -9.0661625701065613e-07 0 -1.4986935139650489e-05 -4.2668358999221456e-05 0 -1.936596186074202e-05 -4.3196855179483229e-05 0 -1.6639063668892879e-05 -4.9673286387473337e-05 0 -1.4986935139650489e-05 -4.2668358999221456e-05 0 -1.5474654403776706e-05 -3.6471798832899613e-05 0 -1.936596186074202e-05 -4.3196855179483229e-05 0 -2.2334916773732714e-05 -5.0943815602561139e-05 0 -1.6639063668892879e-05 -4.9673286387473337e-05 0 -1.936596186074202e-05 -4.3196855179483229e-05 0 -2.0517426441382268e-05 -3.6430033581407737e-05 0 -1.936596186074202e-05 -4.3196855179483229e-05 0 -1.5474654403776706e-05 -3.6471798832899613e-05 0 -3.7681828889946413e-05 9.3866196724609732e-05 0 -2.6801031932801587e-05 9.4899021374615444e-05 0 -3.7349270714131421e-05 0.00010938639598577803 0 -2.4402639434829567e-05 0.00010922796998044308 0 -3.7349270714131421e-05 0.00010938639598577803 0 -2.6801031932801587e-05 9.4899021374615444e-05 0 -1.0856334709541742e-09 1.627360527746337e-10 0 -8.9604056403777053e-07 3.1973250415393203e-07 0 -8.5712126990357471e-07 4.5175899960571711e-07 0 -1.253573963691427e-09 -2.8923921617124219e-10 0 -8.9233656233930634e-07 -6.6059309499663497e-07 0 -1.0547421134604842e-06 -5.6817083719888546e-07 0 -2.3807960429670355e-05 -1.6439637854560318e-05 0 -1.8823840670407682e-05 -1.1696358317956835e-05 0 -2.2272254778082877e-05 -1.1939419410230284e-05 0 -3.7749149082907295e-05 3.2889541032735902e-05 0 -3.5860470258296156e-05 2.3299990748504601e-05 0 -2.9060297744657732e-05 2.2455802714612568e-05 0 -9.2994763327465179e-06 -1.7476967791776676e-06 0 -1.1917199728272147e-05 -3.0505652791098089e-06 0 -1.0867882163269562e-05 -2.9007915491444826e-06 0 -9.7591403186312045e-07 1.094440112840945e-06 0 -1.5589957793148755e-06 9.1239332801963082e-07 0 -1.082185040399261e-06 1.2103786936800027e-06 0 -7.9992049275283167e-06 -2.6080065167074425e-05 0 -7.0532557776627117e-06 -2.5191653183948142e-05 0 -8.964070265687094e-06 -2.3995530156139156e-05 0 -1.0338620589867264e-05 8.6908655005059348e-07 0 -1.2421011400722766e-05 1.6493538433497977e-06 0 -1.4087878256418199e-05 2.2546244710410039e-06 0 -1.7365276964833721e-05 3.6485798617148172e-06 0 -1.4087878256418199e-05 2.2546244710410039e-06 0 -1.2421011400722766e-05 1.6493538433497979e-06 0 -2.0031580979843139e-07 3.2184546293564412e-07 0 -4.8633865442753643e-07 -1.6691412381533071e-07 0 -2.6722511602273506e-07 -5.1781722860495501e-08 0 2.3723020802659845e-06 -6.6817741165109106e-06 0 -6.475680628824739e-07 -9.3476460742337025e-06 0 1.4977932130560636e-06 -9.3893680174592627e-06 0 -2.0900774770472414e-05 -8.2088712062447936e-06 0 -2.0596827993996755e-05 -9.3521324053125555e-06 0 -1.7404454209232076e-05 -6.8974641055590495e-06 0 -3.4379435715729133e-05 1.4519592815432269e-05 0 -2.6915956853663461e-05 1.2138109952014087e-05 0 -3.3093517472454965e-05 1.7150899415691965e-05 0 -9.5520417626766411e-06 -7.0540972446306233e-06 0 -9.7122679658393011e-06 -6.6121675802675063e-06 0 -8.6080108708824087e-06 -6.2207690609155899e-06 0 -5.2763015786819642e-06 -6.0242441125507548e-07 0 -4.9917692558564183e-06 -5.1194239291310592e-07 0 -7.8612818696905739e-06 8.0882544029170793e-08 0 -6.1621146780109512e-06 2.0632322498417537e-07 0 -7.8612818696905739e-06 8.0882544029170846e-08 0 -4.9917692558564183e-06 -5.1194239291310592e-07 0 -1.0010609163048875e-05 3.4930384819939389e-05 0 -8.727219298628913e-06 2.3878417332964442e-05 0 -2.843578065800841e-06 2.1829783630108581e-05 0 -1.3466318776623087e-05 2.7292552934188483e-06 0 -1.119581885231228e-05 1.5384563364025829e-06 0 -1.4087878256418199e-05 2.2546244710410039e-06 0 -9.0459333387139976e-06 -2.2465003643961336e-06 0 -9.4212381519675985e-06 -1.8866756020298908e-06 0 -7.6380637172349951e-06 -1.4554335869436082e-06 0 -9.69885402708941e-06 -1.6444098698922133e-05 0 -9.5479157777250658e-06 -1.4230936362012583e-05 0 -1.130134042372868e-05 -1.6451940341249483e-05 0 -1.09185283460137e-05 -1.4082487849704014e-05 0 -1.130134042372868e-05 -1.6451940341249483e-05 0 -9.5479157777250658e-06 -1.4230936362012583e-05 0 -2.3356737132274383e-06 6.4156823506990891e-07 0 -1.7359427689621232e-06 1.4952834560192131e-06 0 -1.3595726339796747e-06 1.3775334067687593e-06 0 -5.1106202634957973e-06 3.7586738663112863e-06 0 -4.7864503053467341e-06 1.6730681116689999e-06 0 -2.7595479392042505e-06 2.4135716771486548e-06 0 1.2481316459362574e-07 1.9196131002585876e-06 0 -1.0433832616918865e-07 1.616221547915357e-06 0 -3.7830246435188971e-09 2.302205288595802e-06 0 -7.0843342162428694e-06 1.5778671136950377e-05 0 -2.843578065800841e-06 2.1829783630108581e-05 0 -8.7272192986289113e-06 2.3878417332964438e-05 0 -1.3842304026740312e-05 -4.4664421227057108e-06 0 -1.1427578103865394e-05 -4.0649428294031607e-06 0 -1.0867882163269562e-05 -2.9007915491444826e-06 0 -3.8176463357399423e-06 -4.3034222754621878e-07 0 -2.7859047901316781e-06 3.1914386871821071e-07 0 -3.3807413270623808e-06 2.4983234730913425e-07 0 1.4902446586312109e-05 5.1021063271175603e-05 0 1.6837761618935912e-05 6.6665292138753116e-05 0 6.1241242537083187e-06 6.1475971111066931e-05 0 -3.9477638172311343e-05 -4.0604117616327383e-05 0 -3.1574180891850598e-05 -4.005650768892673e-05 0 -3.2936891835555409e-05 -3.461682607458462e-05 0 -3.4379435715729133e-05 1.4519592815432269e-05 0 -2.8148574990095151e-05 9.7400902745447822e-06 0 -2.6083036774332054e-05 9.4122585895883907e-06 0 -1.75632642733308e-05 -5.934761644702799e-06 0 -2.0900774770472414e-05 -8.2088712062447936e-06 0 -1.6688161010121102e-05 -5.6778779291480404e-06 0 -3.4113860134110211e-06 1.0232241701905333e-06 0 -3.7916291740411967e-06 1.2668621150857117e-06 0 -1.9212891630802901e-06 2.977766878756948e-06 0 -5.2763015786819642e-06 -6.0242441125507548e-07 0 -7.8612818696905739e-06 8.0882544029170793e-08 0 -7.4715075095203277e-06 2.8960041766735675e-08 0 -1.0338620589867264e-05 8.6908655005059348e-07 0 -7.4715075095203277e-06 2.8960041766735675e-08 0 -7.8612818696905739e-06 8.0882544029170793e-08 0 6.9075472012127541e-07 4.606317835810363e-06 0 1.1741655136651399e-06 6.4529464868279264e-06 0 2.5755303059273609e-07 5.2445841371031526e-06 0 -3.3539390506899873e-05 -4.8438081257660552e-05 0 -3.1574180891850598e-05 -4.005650768892673e-05 0 -3.6477992294291118e-05 -4.4463374955258856e-05 0 -1.3085601444691952e-05 -1.3780536306678065e-05 0 -1.2193336701053909e-05 -1.3930143465561481e-05 0 -1.1771874159042996e-05 -1.1684681616264131e-05 0 1.8753155808835989e-05 0.00011769505139159567 0 1.8188082167998614e-05 0.00013601119172518055 0 6.8376223589251713e-06 0.00012623829200212778 0 -4.2586013451718304e-05 -5.6612059851307659e-05 0 -4.3275199541006753e-05 -6.4708665601033129e-05 0 -3.7427022929069646e-05 -5.9435759331767612e-05 0 -1.314707284500666e-05 8.9464604953019471e-06 0 -8.4593714131670961e-06 5.4173721398035571e-06 0 -5.7701193820824377e-06 7.0445468943253734e-06 0 -7.3553105469992317e-06 -5.2729164154665016e-06 0 -9.0326382515981125e-06 -7.9697734451156755e-06 0 -6.6734494963260055e-06 -6.6662271011287708e-06 0 -1.1098370054768325e-05 -5.2480559775276885e-06 0 -9.9944577378578081e-06 -6.3597250069828908e-06 0 -8.2064271619136924e-06 -4.1244174396224626e-06 0 -7.3144455760056746e-05 0.00012129862789457786 0 -5.875746160975102e-05 0.00011067885824836238 0 -6.1361761964096945e-05 0.0001261910939310629 0 -1.9709555241515417e-06 -5.3767340689131612e-05 0 -7.644561679428298e-06 -4.9726235798948907e-05 0 -7.5703664962204683e-06 -5.7461386462218005e-05 0 -4.4221453952263374e-06 -1.2091366397976279e-07 0 -3.4750648768682592e-06 4.3353897831044642e-07 0 -4.7626912939232589e-06 3.7864394370002349e-08 0 -1.1390325555426644e-06 7.69716402415289e-06 0 -4.2095635927883246e-06 1.0171503131432514e-05 0 -5.7701193820824377e-06 7.0445468943253734e-06 0 -1.3842304026740312e-05 -4.4664421227057108e-06 0 -1.1917199728272146e-05 -3.0505652791098085e-06 0 -1.4296189346744711e-05 -4.1314652397280078e-06 0 -1.18096684339719e-05 -8.9916278314478385e-06 0 -1.3653083381291273e-05 -1.1570668959150758e-05 0 -1.1528382177585371e-05 -9.1131686070908023e-06 0 -5.6471244909690254e-06 -2.0742258589241615e-07 0 -5.609428278720617e-06 -2.1210171134635025e-07 0 -7.3496266872476477e-06 -8.2998607330418952e-07 0 -3.7168276086449039e-05 -3.3169040911275107e-05 0 -3.9477638172311343e-05 -4.0604117616327383e-05 0 -3.2936891835555409e-05 -3.461682607458462e-05 0 -1.1301712083947313e-05 -2.5585534679939756e-06 0 -8.9695769620010687e-06 -1.5160844834590825e-06 0 -9.4212381519675985e-06 -1.8866756020298908e-06 0 -7.3195123230457625e-06 -9.5389772252325702e-07 0 -9.4212381519675985e-06 -1.8866756020298908e-06 0 -8.9695769620010687e-06 -1.5160844834590825e-06 0 -4.2758694471125815e-05 7.0499538814283505e-05 0 -3.2096950276741565e-05 7.2792811617337902e-05 0 -4.4075069145138461e-05 8.2064345265256861e-05 0 -6.7469201772093581e-07 -6.2179618832988065e-07 0 -1.5408668856122714e-06 -9.0661625701065613e-07 0 -8.9233656233930634e-07 -6.6059309499663497e-07 0 -2.0857605861050541e-06 -9.1763062696647406e-07 0 -8.9233656233930634e-07 -6.6059309499663497e-07 0 -1.5408668856122714e-06 -9.0661625701065613e-07 0 -1.8787305329364122e-06 5.6456244120243927e-07 0 -1.7269685319580904e-06 7.3510978756068922e-07 0 -8.5712126990357471e-07 4.5175899960571711e-07 0 -7.6433032758904644e-07 5.4503242056761154e-07 0 -8.5712126990357471e-07 4.5175899960571711e-07 0 -1.7269685319580904e-06 7.3510978756068922e-07 0 -4.7638566716763714e-06 -2.1810259970285536e-06 0 -4.9573547699935102e-06 -1.5663455855062938e-06 0 -6.090872076920438e-06 -3.1687160536818373e-06 0 -4.5567860971103269e-06 -5.5853702078429297e-07 0 -5.7514881540251543e-06 -1.9192952252360528e-06 0 -5.5620585547921671e-06 -3.5336781584550125e-06 0 -6.8362388813244744e-06 -4.413853384848852e-06 0 -5.5620585547921671e-06 -3.5336781584550125e-06 0 -5.7514881540251543e-06 -1.9192952252360528e-06 0 -1.3653083381291273e-05 -1.1570668959150758e-05 0 -1.5006644505369508e-05 -1.4399384329855696e-05 0 -1.3420952579097706e-05 -1.2887173413280708e-05 0 -6.8362388813244744e-06 -4.413853384848852e-06 0 -7.0972993680359718e-06 -3.4775601430896401e-06 0 -7.882092223764956e-06 -5.3270610490789196e-06 0 -1.8158360396630394e-06 -1.5241009519307084e-05 0 -7.9328945481060223e-07 -1.2001898362681821e-05 0 -3.5991173804119082e-06 -1.4446639601048767e-05 0 -1.4863661725428508e-05 -1.721444865964231e-05 0 -1.3553379425410326e-05 -1.5329548805011938e-05 0 -1.4317799969517854e-05 -1.5106463328932911e-05 0 -2.0900774770472414e-05 -8.2088712062447936e-06 0 -2.4386150058297754e-05 -1.1366981037938058e-05 0 -2.0596827993996755e-05 -9.3521324053125555e-06 0 -4.1066806819578754e-05 2.1480084650973244e-05 0 -3.4379435715729133e-05 1.4519592815432269e-05 0 -3.3093517472454965e-05 1.7150899415691965e-05 0 7.8058146865272221e-07 -2.0909404747214047e-06 0 -1.9765598288000135e-06 -4.4528445703691586e-06 0 6.2834367116931088e-07 -6.0337718207898409e-06 0 -1.8158360396630394e-06 -1.5241009519307084e-05 0 -4.2859128385089449e-06 -1.7635713586817687e-05 0 -2.4007629947948059e-06 -1.8549085952092044e-05 0 -1.1098370054768325e-05 -5.2480559775276885e-06 0 -1.1427578103865394e-05 -4.0649428294031607e-06 0 -1.4274545990979774e-05 -6.0815850828097891e-06 0 -4.1395097066984318e-07 6.0899450647114851e-07 0 -1.6239571578634827e-07 2.6197442461341995e-07 0 -2.1700550761011369e-07 3.306887614565036e-07 0 -2.899281235050269e-06 1.1108886597835646e-06 0 -4.7864503053467341e-06 1.6730681116690001e-06 0 -4.2375576229337425e-06 2.2692876277922716e-07 0 -7.4837704088438577e-07 7.5630385749085811e-07 0 -2.0709430355986912e-06 4.285530033045274e-07 0 -1.5651068485523486e-06 -6.7043338126792243e-09 0 -9.5007759941015471e-07 4.84514809598246e-06 0 -2.6971763245921309e-06 2.2631588138126521e-06 0 -1.9823547345293539e-06 4.8024751445400962e-07 0 -5.6161140544497388e-06 -7.9836727165251471e-07 0 -4.2511916018433089e-06 -2.4106491829006703e-07 0 -4.018739083690739e-06 -7.5608589390020811e-07 0 -2.7890405046268195e-06 -1.1850189397893811e-07 0 -4.018739083690739e-06 -7.5608589390020811e-07 0 -4.2511916018433089e-06 -2.4106491829006703e-07 0 -3.8173095959006502e-06 -2.3875817055375508e-07 0 -5.8317482277476964e-06 -1.6987648951996743e-07 0 -5.7141158305256179e-06 5.9218779997747975e-07 0 -7.9824122071282966e-06 5.6614682042516636e-07 0 -5.7141158305256179e-06 5.9218779997747975e-07 0 -5.8317482277476964e-06 -1.6987648951996743e-07 0 -3.1167647697607131e-05 -2.0437159673489248e-05 0 -3.442086039068185e-05 -2.6420789469207599e-05 0 -2.8628935176445689e-05 -2.247171064138866e-05 0 -1.0010609163048875e-05 3.4930384819939389e-05 0 -1.5264731000885859e-05 2.5381045161941335e-05 0 -8.7272192986289113e-06 2.3878417332964438e-05 0 -1.8312105498985518e-06 -2.9649702967699147e-05 0 -6.3487616088137985e-06 -2.6610146917510626e-05 0 -7.0467701076790512e-06 -3.4602664390614531e-05 0 -7.5827413456850292e-06 -2.2333764921936912e-05 0 -9.5596115326589991e-06 -2.1549776133683357e-05 0 -8.964070265687094e-06 -2.3995530156139156e-05 0 -3.5294648811448556e-06 5.1440573131977181e-07 0 -4.7626912939232589e-06 3.7864394370002349e-08 0 -3.4750648768682592e-06 4.3353897831044642e-07 0 -4.4853903536569438e-06 -9.1304251542979123e-07 0 -2.8571943450515975e-06 7.2773089044116077e-07 0 -3.5899761206402249e-06 -5.1461614624127239e-07 0 -9.2994763327465179e-06 -1.7476967791776676e-06 0 -7.3496266872476477e-06 -8.2998607330418952e-07 0 -8.9695769620010687e-06 -1.5160844834590825e-06 0 -4.5567570644262696e-06 6.654508998690544e-05 0 7.4322625554025259e-06 7.1945315309582456e-05 0 1.4056400107013638e-06 8.1368105693620561e-05 0 -3.6623222796716207e-10 1.7807233763883602e-10 0 -4.1282032361275943e-07 5.146158294261905e-07 0 -2.1700550761011369e-07 3.306887614565036e-07 0 -1.09185283460137e-05 -1.4082487849704014e-05 0 -9.5479157777250658e-06 -1.4230936362012583e-05 0 -9.1690165518321669e-06 -1.1598069192358801e-05 0 7.8058146865272221e-07 -2.0909404747214047e-06 0 4.9518869939502898e-07 5.0413232860899594e-06 0 -1.9823547345293539e-06 4.8024751445400962e-07 0 -5.9757033173672079e-05 5.55486640612333e-05 0 -5.3824890085145994e-05 4.2019820436522355e-05 0 -4.7431444413481385e-05 4.695005785887488e-05 0 -2.2372461022062295e-07 3.9898916454679067e-07 0 -1.9965815195740236e-07 3.0357658950920538e-07 0 -1.452995812437462e-07 1.4110726650482553e-07 0 -1.8787305329364122e-06 5.6456244120243927e-07 0 -8.5712126990357471e-07 4.5175899960571711e-07 0 -8.9604056403777053e-07 3.1973250415393203e-07 0 -2.0857605861050541e-06 -9.1763062696647406e-07 0 -1.0547421134604842e-06 -5.6817083719888546e-07 0 -8.9233656233930634e-07 -6.6059309499663497e-07 0 -6.2960106104216584e-07 1.6845637929094327e-06 0 -5.6249184365283028e-07 1.3382977377941477e-06 0 -1.082185040399261e-06 1.2103786936800027e-06 0 -1.7920230235138234e-05 -8.8599333179307335e-06 0 -1.7404454209232076e-05 -6.8974641055590495e-06 0 -2.0596827993996755e-05 -9.3521324053125555e-06 0 -2.7020570363543771e-05 1.6448921990009288e-05 0 -3.3093517472454965e-05 1.7150899415691965e-05 0 -2.6915956853663461e-05 1.2138109952014087e-05 0 -5.0156551339537293e-06 0.00012080042303967178 0 1.4472191946849539e-06 0.00010476036303135093 0 8.0512770312315573e-06 0.00011414103504184385 0 -3.1657328969069859e-05 -5.6474881535561089e-05 0 -3.3539390506899873e-05 -4.8438081257660552e-05 0 -3.7339362933510315e-05 -5.3760908344525295e-05 0 2.3723020802659845e-06 -6.6817741165109106e-06 0 6.2834367116931098e-07 -6.03377182078984e-06 0 -6.475680628824739e-07 -9.3476460742337025e-06 0 -5.1106202634957973e-06 3.7586738663112863e-06 0 -5.7701193820824377e-06 7.0445468943253726e-06 0 -8.4593714131670961e-06 5.4173721398035571e-06 0 -1.9552622900776923e-06 -7.5117117230607618e-06 0 -6.475680628824739e-07 -9.3476460742337025e-06 0 6.2834367116931088e-07 -6.0337718207898409e-06 0 -9.7591403186312045e-07 1.094440112840945e-06 0 -1.0271411920445779e-06 1.0132106044322947e-06 0 -1.5589957793148755e-06 9.1239332801963082e-07 0 -1.8917427394886675e-07 9.6261591642641095e-08 0 -2.2350573189210272e-07 -1.7414775734771023e-07 0 -1.2978756153769587e-07 -1.2347397647573963e-08 0 -4.4221453952263374e-06 -1.2091366397976279e-07 0 -3.3807413270623808e-06 2.498323473091342e-07 0 -3.4750648768682592e-06 4.3353897831044642e-07 0 -2.0405495324523045e-06 3.8066963408209704e-06 0 -2.6971763245921309e-06 2.2631588138126521e-06 0 -4.6854961827511274e-07 6.1934808856987066e-06 0 -9.5007759941015471e-07 4.84514809598246e-06 0 -4.6854961827511279e-07 6.1934808856987066e-06 0 -2.6971763245921309e-06 2.2631588138126521e-06 0 -2.6334347407720209e-05 -4.3481245501587971e-05 0 -3.3539390506899873e-05 -4.8438081257660552e-05 0 -2.8039799350563467e-05 -5.0817631006123266e-05 0 -3.1657328969069859e-05 -5.6474881535561089e-05 0 -2.8039799350563467e-05 -5.0817631006123266e-05 0 -3.3539390506899873e-05 -4.8438081257660552e-05 0 -1.0463970085800644e-05 9.3245274849799528e-05 0 1.4472191946849539e-06 0.00010476036303135093 0 -1.1197875898794553e-05 0.00010974635689085087 0 -5.0156551339537293e-06 0.00012080042303967178 0 -1.1197875898794553e-05 0.00010974635689085087 0 1.4472191946849539e-06 0.00010476036303135093 0 -1.0463970085800644e-05 9.3245274849799528e-05 0 -1.1182079018481046e-05 7.7681473495325241e-05 0 1.4056400107013638e-06 8.1368105693620561e-05 0 -4.5567570644262696e-06 6.654508998690544e-05 0 1.4056400107013638e-06 8.1368105693620561e-05 0 -1.1182079018481046e-05 7.7681473495325241e-05 0 -2.3782420194580131e-10 1.2926961519411944e-10 0 -2.7534645413306334e-10 1.5343813366506768e-10 0 -1.6239571578634827e-07 2.6197442461341995e-07 0 1.4977932130560636e-06 -9.3893680174592627e-06 0 -6.4756806288247411e-07 -9.3476460742337042e-06 0 -7.9328945481060223e-07 -1.2001898362681821e-05 0 -2.7887884316731235e-06 -1.2102288868327698e-05 0 -7.9328945481060223e-07 -1.2001898362681821e-05 0 -6.475680628824739e-07 -9.3476460742337025e-06 0 -2.7876701749205575e-05 -3.2675750613869225e-05 0 -2.9629201252052736e-05 -2.8136795383816799e-05 0 -3.2936891835555409e-05 -3.461682607458462e-05 0 -3.442086039068185e-05 -2.6420789469207599e-05 0 -2.9629201252052736e-05 -2.8136795383816799e-05 0 -2.8628935176445689e-05 -2.247171064138866e-05 0 -5.9757033173672079e-05 5.55486640612333e-05 0 -4.7431444413481385e-05 4.695005785887488e-05 0 -4.8497485173268369e-05 6.018183103266146e-05 0 -9.2611263642459435e-09 3.0713410518430227e-06 0 2.6088732390469829e-07 4.0201991895975762e-06 0 3.4434946409234422e-07 3.1037984003363517e-06 0 6.9075472012127541e-07 4.606317835810363e-06 0 3.4434946409234422e-07 3.1037984003363517e-06 0 2.6088732390469829e-07 4.0201991895975762e-06 0 -5.6403361509445274e-07 9.3274303718100854e-07 0 -5.5824802111726317e-07 1.0623599420704259e-06 0 -2.9468573478496109e-07 8.7627849951825607e-07 0 -4.1395097066984318e-07 6.0899450647114851e-07 0 -2.1700550761011364e-07 3.3068876145650355e-07 0 -4.1282032361275943e-07 5.146158294261905e-07 0 -1.0338620589867264e-05 8.6908655005059348e-07 0 -1.4087878256418199e-05 2.2546244710410039e-06 0 -1.119581885231228e-05 1.5384563364025829e-06 0 -7.3195123230457625e-06 -9.5389772252325702e-07 0 -7.6380637172349951e-06 -1.4554335869436082e-06 0 -9.4212381519675985e-06 -1.8866756020298908e-06 0 -7.3195123230457625e-06 -9.5389772252325702e-07 0 -8.9695769620010687e-06 -1.5160844834590822e-06 0 -7.3496266872476477e-06 -8.2998607330418952e-07 0 1.862179195425957e-05 0.00010014688116413145 0 8.0512770312315573e-06 0.00011414103504184385 0 1.4472191946849539e-06 0.00010476036303135093 0 -4.1321092743997127e-05 -4.8458402830758973e-05 0 -3.7339362933510315e-05 -5.3760908344525302e-05 0 -3.3539390506899873e-05 -4.8438081257660552e-05 0 -2.1839606801047471e-10 1.7771353271894057e-11 0 -1.2978756153769587e-07 -1.2347397647573985e-08 0 -2.2350573189210272e-07 -1.7414775734771023e-07 0 -7.4837704088438577e-07 7.5630385749085811e-07 0 -1.3503732052374677e-06 1.5011675514866152e-06 0 -2.0709430355986912e-06 4.285530033045274e-07 0 -1.8763206920369128e-05 -2.7304073613214447e-05 0 -2.0929528074110687e-05 -2.258861952185946e-05 0 -2.3263356734807656e-05 -2.7343571706062275e-05 0 -6.8709677652300387e-06 1.1820474547025482e-06 0 -4.7864503053467332e-06 1.6730681116689999e-06 0 -7.6614043021496984e-06 2.8485394998040508e-06 0 -7.3553105469992317e-06 -5.2729164154665016e-06 0 -9.9944577378578081e-06 -6.3597250069828908e-06 0 -9.0326382515981125e-06 -7.9697734451156755e-06 0 -1.0966731051287836e-07 2.1272383706561217e-06 0 3.4434946409234422e-07 3.1037984003363517e-06 0 1.7663097082763201e-07 3.4741663145190467e-06 0 -2.4780135762336309e-05 5.6093322593762223e-05 0 -3.5938430785157987e-05 5.8553226408507366e-05 0 -3.0066987478286478e-05 4.7491288433189506e-05 0 -1.7920230235138234e-05 -8.8599333179307335e-06 0 -2.2272254778082877e-05 -1.1939419410230284e-05 0 -1.8823840670407682e-05 -1.1696358317956835e-05 0 -2.7020570363543771e-05 1.6448921990009288e-05 0 -2.9060297744657732e-05 2.2455802714612568e-05 0 -3.5860470258296156e-05 2.3299990748504601e-05 0 -1.0393603578548487e-05 -2.3432012497898507e-05 0 -9.3343217547032987e-06 -2.5761937488358929e-05 0 -8.964070265687094e-06 -2.3995530156139156e-05 0 -7.9992049275283167e-06 -2.6080065167074425e-05 0 -8.964070265687094e-06 -2.3995530156139156e-05 0 -9.3343217547032987e-06 -2.5761937488358929e-05 0 -9.2994763327465179e-06 -1.7476967791776676e-06 0 -7.3118861037852236e-06 -9.4959932912594743e-07 0 -7.3496266872476477e-06 -8.2998607330418952e-07 0 -5.6471244909690254e-06 -2.0742258589241615e-07 0 -7.3496266872476477e-06 -8.2998607330418952e-07 0 -7.3118861037852236e-06 -9.4959932912594743e-07 0 -3.8176463357399423e-06 -4.3034222754621878e-07 0 -4.9573547699935102e-06 -1.5663455855062938e-06 0 -4.0432757352458891e-06 -1.0052364524185366e-06 0 -1.1301712083947313e-05 -2.5585534679939756e-06 0 -1.4296189346744711e-05 -4.1314652397280078e-06 0 -1.1917199728272146e-05 -3.0505652791098085e-06 0 -1.1840720489185286e-05 2.1238864845263206e-06 0 -1.2421011400722766e-05 1.6493538433497979e-06 0 -8.9816054662574809e-06 9.099912445180558e-07 0 -1.1656862776282184e-05 -2.54797316406923e-05 0 -9.6202685238098206e-06 -2.7032016552252497e-05 0 -1.0714951570125182e-05 -2.4948788497425988e-05 0 -2.4780135762336309e-05 5.6093322593762223e-05 0 -3.2096950276741565e-05 7.2792811617337902e-05 0 -3.5938430785157987e-05 5.8553226408507366e-05 0 -2.7534645413306334e-10 1.5343813366506768e-10 0 -3.6623222796716207e-10 1.7807233763883602e-10 0 -2.1700550761011369e-07 3.306887614565036e-07 0 1.7994571362179307e-05 8.3059728130473808e-05 0 1.4056400107013638e-06 8.1368105693620561e-05 0 7.4322625554025259e-06 7.1945315309582456e-05 0 1.3055629795451211e-06 7.4745935138232153e-06 0 2.0018563119350747e-06 8.9071894477270621e-06 0 1.1741655136651397e-06 6.4529464868279264e-06 0 -2.7020570363543771e-05 1.6448921990009288e-05 0 -2.1079232241850089e-05 1.5567007336411476e-05 0 -2.9060297744657732e-05 2.2455802714612568e-05 0 1.3055629795451211e-06 7.4745935138232153e-06 0 6.2990519515057598e-07 5.5416638365259917e-06 0 -8.632538935980228e-08 5.6799308448293368e-06 0 1.3055629795451211e-06 7.4745935138232153e-06 0 1.1741655136651397e-06 6.4529464868279255e-06 0 6.2990519515057598e-07 5.5416638365259917e-06 0 -6.465253581996435e-06 -7.7847698225015358e-07 0 -8.4358509591131073e-06 -1.7142054140323353e-06 0 -7.4810448531955613e-06 -1.8049535169918275e-06 0 -2.4760027009047622e-06 7.2058388323356099e-07 0 -3.4750648768682592e-06 4.3353897831044642e-07 0 -3.3807413270623808e-06 2.4983234730913425e-07 0 -3.7948160034657052e-05 4.6630540118989538e-05 0 -4.8497485173268369e-05 6.018183103266146e-05 0 -4.7431444413481385e-05 4.695005785887488e-05 0 -5.6702600484893602e-06 -3.8241727810465216e-06 0 -6.10800291475323e-06 -3.1825898257127474e-06 0 -4.8195009802444647e-06 -2.0801690166792673e-06 0 -2.0405495324523045e-06 3.8066963408209704e-06 0 -4.6854961827511274e-07 6.1934808856987066e-06 0 -8.632538935980228e-08 5.6799308448293368e-06 0 -1.0682283747595311e-05 -1.1599430579757235e-05 0 -9.2589068551551226e-06 -9.3038024401873249e-06 0 -1.0270901772335112e-05 -9.0900511466753258e-06 0 -1.7920230235138234e-05 -8.8599333179307335e-06 0 -2.0596827993996755e-05 -9.3521324053125555e-06 0 -2.2272254778082877e-05 -1.1939419410230284e-05 0 -2.7020570363543771e-05 1.6448921990009288e-05 0 -3.5860470258296156e-05 2.3299990748504601e-05 0 -3.3093517472454965e-05 1.7150899415691965e-05 0 -4.9395402943823426e-05 0.00011959801485365489 0 -6.1361761964096945e-05 0.0001261910939310629 0 -5.875746160975102e-05 0.00011067885824836238 0 -1.231365820009146e-05 -5.4756428313199817e-05 0 -7.5703664962204683e-06 -5.7461386462218005e-05 0 -7.644561679428298e-06 -4.9726235798948907e-05 0 -1.3085601444691952e-05 -1.3780536306678065e-05 0 -1.1771874159042996e-05 -1.1684681616264131e-05 0 -1.3420952579097706e-05 -1.2887173413280708e-05 0 6.9075472012127541e-07 4.606317835810363e-06 0 1.7663097082763201e-07 3.4741663145190467e-06 0 3.4434946409234422e-07 3.1037984003363517e-06 0 -6.1621146780109512e-06 2.0632322498417537e-07 0 -8.9816054662574809e-06 9.099912445180558e-07 0 -7.8612818696905739e-06 8.0882544029170793e-08 0 -1.3842304026740312e-05 -4.4664421227057108e-06 0 -1.0867882163269562e-05 -2.9007915491444826e-06 0 -1.1917199728272146e-05 -3.0505652791098085e-06 0 -2.0716157666111781e-05 7.611050336286022e-06 0 -1.6310072983212418e-05 6.8029161804200254e-06 0 -2.0649817470136459e-05 1.0841217248656981e-05 0 -5.6076726666596467e-06 -4.1982250589494985e-06 0 -6.6734494963260055e-06 -6.6662271011287708e-06 0 -6.0457837407722472e-06 -5.8221480716686801e-06 0 -9.3877059401040977e-06 -2.6957349817275641e-06 0 -1.086788216326956e-05 -2.9007915491444826e-06 0 -1.1427578103865394e-05 -4.0649428294031607e-06 0 -2.0405495324523045e-06 3.8066963408209704e-06 0 -1.9212891630802901e-06 2.977766878756948e-06 0 -3.7916291740411967e-06 1.2668621150857117e-06 0 -2.1839606801047471e-10 1.7771353271894057e-11 0 -2.1290914063975825e-10 -2.7746183470141001e-11 0 -1.2978756153769587e-07 -1.2347397647573963e-08 0 -1.2969460783003737e-05 -1.6274253738223162e-05 0 -1.3553379425410326e-05 -1.5329548805011938e-05 0 -1.4863661725428508e-05 -1.721444865964231e-05 0 -1.75632642733308e-05 -5.934761644702799e-06 0 -1.6688161010121102e-05 -5.6778779291480404e-06 0 -1.4296189346744711e-05 -4.1314652397280078e-06 0 -2.8148574990095151e-05 9.7400902745447822e-06 0 -2.1781356293647286e-05 6.3653036568309287e-06 0 -2.6083036774332054e-05 9.4122585895883907e-06 0 -2.441098452401508e-05 -2.2068639087989495e-05 0 -2.8628935176445689e-05 -2.247171064138866e-05 0 -2.9629201252052736e-05 -2.8136795383816799e-05 0 -1.1860409602894779e-05 -9.5358841383387669e-06 0 -1.1286880614725366e-05 -1.2024043553314366e-05 0 -9.0326382515981125e-06 -7.9697734451156755e-06 0 -8.2443748517569321e-06 -9.9071048855974507e-06 0 -9.0326382515981125e-06 -7.9697734451156755e-06 0 -1.1286880614725366e-05 -1.2024043553314366e-05 0 -9.3877059401040977e-06 -2.6957349817275641e-06 0 -8.9792599334329304e-06 -3.286238307168489e-06 0 -7.4810448531955613e-06 -1.8049535169918275e-06 0 -1.0682283747595311e-05 -1.1599430579757235e-05 0 -1.0270901772335112e-05 -9.0900511466753258e-06 0 -1.1771874159042996e-05 -1.1684681616264131e-05 0 -2.7876701749205575e-05 -3.2675750613869225e-05 0 -2.3171955140665421e-05 -3.2030803984153189e-05 0 -2.3263356734807656e-05 -2.7343571706062275e-05 0 -9.3877059401040977e-06 -2.6957349817275641e-06 0 -7.4810448531955613e-06 -1.8049535169918275e-06 0 -8.4358509591131073e-06 -1.7142054140323353e-06 0 -8.8835425609506056e-06 -7.2584356939331843e-06 0 -1.0270901772335112e-05 -9.0900511466753258e-06 0 -9.2589068551551226e-06 -9.3038024401873249e-06 0 -4.3887874265638178e-07 -3.4444294561510047e-07 0 -2.6722511602273506e-07 -5.1781722860495481e-08 0 -4.8633865442753643e-07 -1.6691412381533071e-07 0 -2.4386150058297754e-05 -1.1366981037938058e-05 0 -2.2272254778082877e-05 -1.1939419410230284e-05 0 -2.0596827993996755e-05 -9.3521324053125555e-06 0 -4.1066806819578754e-05 2.1480084650973244e-05 0 -3.3093517472454965e-05 1.7150899415691965e-05 0 -3.5860470258296156e-05 2.3299990748504601e-05 0 -4.1321092743997127e-05 -4.8458402830758973e-05 0 -3.3539390506899873e-05 -4.8438081257660552e-05 0 -3.6477992294291118e-05 -4.4463374955258856e-05 0 1.862179195425957e-05 0.00010014688116413145 0 1.4472191946849539e-06 0.00010476036303135093 0 5.5792478830931017e-06 9.2744176506049758e-05 0 1.7994571362179307e-05 8.3059728130473808e-05 0 5.5792478830931017e-06 9.2744176506049758e-05 0 1.4056400107013638e-06 8.1368105693620561e-05 0 -4.1321092743997127e-05 -4.8458402830758973e-05 0 -4.2586013451718304e-05 -5.6612059851307659e-05 0 -3.7339362933510315e-05 -5.3760908344525295e-05 0 1.862179195425957e-05 0.00010014688116413145 0 1.8753155808835989e-05 0.00011769505139159567 0 8.0512770312315573e-06 0.00011414103504184385 0 -1.9552622900776923e-06 -7.5117117230607618e-06 0 -1.976559828800014e-06 -4.4528445703691586e-06 0 -3.9188166677777246e-06 -7.0304640424114866e-06 0 -1.1968792122970334e-05 -1.0667604649024556e-05 0 -1.3420952579097706e-05 -1.2887173413280708e-05 0 -1.1771874159042996e-05 -1.1684681616264131e-05 0 -1.7181731690422644e-05 -2.1973553064582875e-05 0 -1.7421962927804545e-05 -2.2576076891642923e-05 0 -1.6792280667579599e-05 -2.1198737483318625e-05 0 -1.2169954984052834e-06 -2.2284684816965127e-05 0 -3.6401896312202511e-06 -2.5850287633254676e-05 0 -1.923446341956298e-06 -2.6099717887095668e-05 0 -2.7020570363543771e-05 1.6448921990009288e-05 0 -2.0649817470136459e-05 1.0841217248656981e-05 0 -2.1079232241850089e-05 1.5567007336411476e-05 0 -5.6471244909690254e-06 -2.0742258589241615e-07 0 -4.4794893967564378e-06 2.2465102053871238e-07 0 -5.609428278720617e-06 -2.1210171134635017e-07 0 -1.7283592927796194e-07 1.0828645170531077e-06 0 -5.5824802111726317e-07 1.0623599420704259e-06 0 -5.6249184365283028e-07 1.3382977377941477e-06 0 -4.2758694471125815e-05 7.0499538814283505e-05 0 -3.5938430785157987e-05 5.8553226408507366e-05 0 -3.2096950276741565e-05 7.2792811617337902e-05 0 -1.0856531363743385e-05 -3.1025481089600112e-05 0 -7.0467701076790512e-06 -3.4602664390614531e-05 0 -6.3487616088137985e-06 -2.6610146917510626e-05 0 -1.8917427394886675e-07 9.6261591642641095e-08 0 -1.2978756153769587e-07 -1.2347397647573963e-08 0 -1.452995812437462e-07 1.4110726650482553e-07 0 -1.1098370054768325e-05 -5.2480559775276885e-06 0 -8.2064271619136924e-06 -4.1244174396224626e-06 0 -8.9792599334329304e-06 -3.286238307168489e-06 0 1.6837761618935912e-05 6.6665292138753116e-05 0 1.7994571362179311e-05 8.3059728130473808e-05 0 7.4322625554025259e-06 7.1945315309582456e-05 0 -1.5245449140584813e-06 -7.4611605522666882e-07 0 -1.4283169627642904e-06 -4.4125601021193553e-07 0 -2.3293701225142988e-06 -7.1052392277112458e-07 0 -1.9552622900776923e-06 -7.5117117230607618e-06 0 -3.9188166677777246e-06 -7.0304640424114866e-06 0 -3.2548482622441997e-06 -9.8800534854723193e-06 0 -5.3146743462948835e-06 -9.9575883035150881e-06 0 -3.2548482622441997e-06 -9.8800534854723193e-06 0 -3.9188166677777246e-06 -7.0304640424114866e-06 0 -1.5611410832669672e-05 -2.0967567320623382e-05 0 -1.6276964387174042e-05 -2.0269709554351603e-05 0 -1.6792280667579599e-05 -2.1198737483318625e-05 0 -1.7181731690422644e-05 -2.1973553064582875e-05 0 -1.6792280667579599e-05 -2.1198737483318625e-05 0 -1.6276964387174042e-05 -2.0269709554351603e-05 0 -1.2169954984052834e-06 -2.2284684816965127e-05 0 -3.8013599235637823e-06 -2.2863080065982278e-05 0 -3.6401896312202511e-06 -2.5850287633254676e-05 0 -5.4402261791115672e-06 -2.6142833848225366e-05 0 -3.6401896312202511e-06 -2.5850287633254676e-05 0 -3.8013599235637827e-06 -2.2863080065982278e-05 0 -9.2611263642459435e-09 3.0713410518430227e-06 0 -3.7830246435188971e-09 2.302205288595802e-06 0 -7.3882220795441026e-07 2.3186633903600406e-06 0 7.8058146865272221e-07 -2.0909404747214047e-06 0 -1.9823547345293539e-06 4.8024751445400962e-07 0 -1.976559828800014e-06 -4.4528445703691586e-06 0 -4.2316587713449619e-06 -2.7489324686101662e-06 0 -1.976559828800014e-06 -4.4528445703691586e-06 0 -1.9823547345293539e-06 4.8024751445400962e-07 0 -2.7876701749205575e-05 -3.2675750613869225e-05 0 -3.2936891835555409e-05 -3.461682607458462e-05 0 -3.1574180891850598e-05 -4.005650768892673e-05 0 -9.2994763327465179e-06 -1.7476967791776676e-06 0 -1.0867882163269562e-05 -2.9007915491444826e-06 0 -8.4358509591131073e-06 -1.7142054140323353e-06 0 -9.3877059401040977e-06 -2.6957349817275641e-06 0 -8.4358509591131073e-06 -1.7142054140323353e-06 0 -1.0867882163269562e-05 -2.9007915491444826e-06 0 -6.2447312018101045e-06 -8.2122374759221483e-06 0 -9.5520417626766411e-06 -7.0540972446306233e-06 0 -8.6080108708824087e-06 -6.2207690609155899e-06 0 -1.5090495303083495e-05 -1.8983877198246909e-05 0 -1.6276964387174042e-05 -2.0269709554351603e-05 0 -1.4777988197156534e-05 -1.9949127211502137e-05 0 -4.6516602429239565e-06 -2.0318013759103788e-05 0 -5.9074977682984522e-06 -2.2785604490371282e-05 0 -3.8013599235637827e-06 -2.2863080065982278e-05 0 -9.7591403186312045e-07 1.094440112840945e-06 0 -5.6249184365283017e-07 1.3382977377941477e-06 0 -5.5824802111726317e-07 1.0623599420704259e-06 0 -9.6202685238098206e-06 -2.7032016552252497e-05 0 -9.3343217547032987e-06 -2.5761937488358929e-05 0 -1.0714951570125182e-05 -2.4948788497425988e-05 0 -1.2376337039632412e-06 9.6467223017792341e-07 0 -7.3844318175026593e-07 9.0578799505305904e-07 0 -8.2402963734885741e-07 8.5727375206182854e-07 0 -8.8835425609506056e-06 -7.2584356939331843e-06 0 -7.882092223764956e-06 -5.3270610490789187e-06 0 -8.9220084050179691e-06 -5.9588125602987606e-06 0 -1.8917427394886675e-07 9.6261591642641095e-08 0 -1.7631779918160907e-07 2.799186730334554e-07 0 -2.6722511602273506e-07 -5.1781722860495501e-08 0 -2.3464833402286887e-05 8.0200617772013244e-05 0 -1.8228421723032017e-05 6.7611675052938299e-05 0 -1.1182079018481046e-05 7.7681473495325241e-05 0 -2.4402639434829567e-05 0.00010922796998044308 0 -1.1197875898794551e-05 0.00010974635689085087 0 -1.6969323054994485e-05 0.00012048979703211407 0 -2.2334916773732714e-05 -5.0943815602561139e-05 0 -2.8039799350563467e-05 -5.0817631006123266e-05 0 -2.6263663985217614e-05 -5.6118117892439145e-05 0 5.5930434658575456e-06 1.3766485716258624e-05 0 4.9518869939502898e-07 5.0413232860899594e-06 0 5.0695030342070395e-06 1.2356654035423131e-06 0 -1.8917427394886675e-07 9.6261591642641095e-08 0 -1.452995812437462e-07 1.4110726650482553e-07 0 -1.9965815195740236e-07 3.0357658950920538e-07 0 -3.9477638172311343e-05 -4.0604117616327383e-05 0 -3.6477992294291118e-05 -4.4463374955258856e-05 0 -3.1574180891850598e-05 -4.005650768892673e-05 0 -4.3608825428443837e-05 -8.7484012530947489e-05 0 -3.8762403171306296e-05 -8.3374678635389385e-05 0 -4.3630599758705083e-05 -8.0207754637100218e-05 0 1.4986544492429329e-05 0.00018720508819754979 0 5.7497780910905239e-06 0.0001806075303716136 0 1.605676151471222e-05 0.00017168038575666127 0 1.4986544492429329e-05 0.00018720508819754979 0 9.3464958940156637e-07 0.00018926029005126479 0 5.7497780910905231e-06 0.0001806075303716136 0 -4.9923596085523509e-06 -8.7562237745422158e-05 0 -8.8577465338262697e-06 -8.4765739796810054e-05 0 -1.0815448174275043e-05 -8.8488238222079213e-05 0 -7.4663832748619315e-05 0.0001883062734850948 0 -7.4693347602739586e-05 0.00017219427830588414 0 -6.3927111626615191e-05 0.00017919694647989089 0 -4.3608825428443837e-05 -8.7484012530947489e-05 0 -3.6366156957270054e-05 -8.7458021776902576e-05 0 -3.8762403171306296e-05 -8.3374678635389385e-05 0 -4.9923596085523509e-06 -8.7562237745422158e-05 0 -4.3894443006746567e-06 -8.0429196692405065e-05 0 -8.8577465338262697e-06 -8.4765739796810054e-05 0 -7.4663832748619315e-05 0.0001883062734850948 0 -6.3927111626615191e-05 0.00017919694647989089 0 -5.8601863442913539e-05 0.00018826998907646054 0 -2.12909140639782e-10 -2.774618347014326e-11 0 -1.452995812437462e-07 1.4110726650482553e-07 0 -1.2978756153769587e-07 -1.2347397647573963e-08 0 -1.0682283747595311e-05 -1.1599430579757235e-05 0 -9.1690165518321669e-06 -1.1598069192358801e-05 0 -9.2589068551551226e-06 -9.3038024401873249e-06 0 -9.3877059401040977e-06 -2.6957349817275641e-06 0 -1.1427578103865394e-05 -4.0649428294031607e-06 0 -8.9792599334329304e-06 -3.286238307168489e-06 0 -2.7876701749205575e-05 -3.2675750613869225e-05 0 -2.5612817964906648e-05 -3.6816155041353841e-05 0 -2.3171955140665421e-05 -3.2030803984153189e-05 0 -7.1638089798492439e-07 -4.6333709897765846e-08 0 -1.5651068485523486e-06 -6.7043338126792243e-09 0 -1.4283169627642904e-06 -4.4125601021193553e-07 0 -2.7114149520213388e-05 0.00013023180147227434 0 -3.7884212368645068e-05 0.00014053462655029764 0 -3.813835489745991e-05 0.00012468923675843644 0 -2.23320969752436e-05 -6.0519405408452768e-05 0 -1.8261753851851511e-05 -6.5465920359146531e-05 0 -1.7380318067289019e-05 -5.7898395521727851e-05 0 -1.6523902642144e-05 -1.9217072039717835e-05 0 -1.6954146394965507e-05 -2.0840995115418931e-05 0 -1.6028541181353291e-05 -1.9186599234077847e-05 0 3.8897718615956461e-08 -1.5218101729347164e-05 0 -2.4007629947948063e-06 -1.8549085952092044e-05 0 -6.6980130703058107e-07 -1.8711772223388703e-05 0 3.600010060714958e-06 -3.5440895634701236e-06 0 6.2834367116931088e-07 -6.0337718207898409e-06 0 2.3723020802659845e-06 -6.6817741165109106e-06 0 -1.1098370054768325e-05 -5.2480559775276885e-06 0 -8.9792599334329304e-06 -3.286238307168489e-06 0 -1.1427578103865394e-05 -4.0649428294031607e-06 0 -1.5006644505369508e-05 -1.4399384329855696e-05 0 -1.5922957734011111e-05 -1.6989227109681145e-05 0 -1.4317799969517854e-05 -1.5106463328932911e-05 0 1.4977932130560636e-06 -9.3893680174592627e-06 0 -7.9328945481060223e-07 -1.2001898362681821e-05 0 6.9675067316054636e-07 -1.2182350908545258e-05 0 -1.8763206920369128e-05 -2.7304073613214447e-05 0 -1.4944151813452053e-05 -2.9288919887448777e-05 0 -1.4638770205507478e-05 -2.2858149330504055e-05 0 -1.7283592927796194e-07 1.0828645170531077e-06 0 -2.9468573478496109e-07 8.7627849951825607e-07 0 -5.5824802111726317e-07 1.0623599420704259e-06 0 -1.231365820009146e-05 -5.4756428313199817e-05 0 -1.6639063668892879e-05 -4.9673286387473337e-05 0 -1.7380318067289019e-05 -5.7898395521727851e-05 0 -4.9395402943823426e-05 0.00011959801485365489 0 -3.7349270714131421e-05 0.00010938639598577803 0 -3.813835489745991e-05 0.00012468923675843644 0 -2.7887884316731235e-06 -1.2102288868327698e-05 0 -6.475680628824739e-07 -9.3476460742337025e-06 0 -3.2548482622441997e-06 -9.8800534854723193e-06 0 -1.9552622900776923e-06 -7.5117117230607618e-06 0 -3.2548482622441997e-06 -9.8800534854723193e-06 0 -6.475680628824739e-07 -9.3476460742337025e-06 0 -2.4760027009047622e-06 7.2058388323356099e-07 0 -2.571870556997988e-06 7.482257065804313e-07 0 -3.4750648768682592e-06 4.3353897831044642e-07 0 -1.1860409602894779e-05 -9.5358841383387669e-06 0 -9.0326382515981125e-06 -7.9697734451156755e-06 0 -9.9944577378578081e-06 -6.3597250069828908e-06 0 -9.8631205806580499e-06 -2.2752552825509781e-05 0 -6.0408649000377779e-06 -1.9930816007688189e-05 0 -8.3703023998277867e-06 -1.4981168028424143e-05 0 -8.0747544705124774e-06 -9.1114755511449001e-06 0 -9.2589068551551226e-06 -9.3038024401873249e-06 0 -9.1690165518321669e-06 -1.1598069192358801e-05 0 -3.7517315318397694e-06 -1.6053937694775604e-05 0 -6.0408649000377779e-06 -1.9930816007688189e-05 0 -2.4212511432843065e-06 -2.2584639257491972e-05 0 -1.8158360396630394e-06 -1.5241009519307084e-05 0 -3.5991173804119082e-06 -1.4446639601048767e-05 0 -4.2859128385089449e-06 -1.7635713586817687e-05 0 -5.6281527828720481e-06 -1.6190778712245964e-05 0 -4.2859128385089449e-06 -1.7635713586817687e-05 0 -3.5991173804119082e-06 -1.4446639601048767e-05 0 -4.1665002903552793e-06 1.4775477761508219e-07 0 -5.5070677085980293e-06 -3.9605775479141604e-07 0 -5.609428278720617e-06 -2.1210171134635017e-07 0 -4.0321651383737114e-06 -1.3488289602268464e-06 0 -4.8195009802444647e-06 -2.0801690166792673e-06 0 -3.5899761206402249e-06 -5.1461614624127239e-07 0 -4.4853903536569438e-06 -9.1304251542979123e-07 0 -3.5899761206402249e-06 -5.1461614624127239e-07 0 -4.8195009802444647e-06 -2.0801690166792673e-06 0 1.3055629795451211e-06 7.4745935138232153e-06 0 -4.6854961827511274e-07 6.1934808856987066e-06 0 1.7204287821688925e-06 9.6103785537985013e-06 0 -9.5007759941015471e-07 4.84514809598246e-06 0 1.7204287821688925e-06 9.6103785537985013e-06 0 -4.6854961827511274e-07 6.1934808856987066e-06 0 1.7994571362179307e-05 8.3059728130473808e-05 0 1.862179195425957e-05 0.00010014688116413145 0 5.5792478830931017e-06 9.2744176506049758e-05 0 -4.3251649082280477e-07 4.5943234848993553e-06 0 2.6088732390469829e-07 4.0201991895975762e-06 0 -5.4057240373750842e-07 3.4212019925068649e-06 0 -3.9477638172311343e-05 -4.0604117616327383e-05 0 -4.1321092743997127e-05 -4.8458402830758973e-05 0 -3.6477992294291118e-05 -4.4463374955258856e-05 0 -3.5294648811448556e-06 5.1440573131977181e-07 0 -3.4750648768682592e-06 4.3353897831044642e-07 0 -2.571870556997988e-06 7.482257065804313e-07 0 -5.2763015786819642e-06 -6.0242441125507548e-07 0 -4.1536872043838858e-06 -6.2733699732903658e-07 0 -3.4361038706726516e-06 -8.7078210329574883e-07 0 -4.1665002903552793e-06 1.4775477761508219e-07 0 -2.8274577555007597e-06 4.0746514395059235e-07 0 -3.1896261820028556e-06 1.569664482206192e-07 0 -7.4837704088438577e-07 7.5630385749085811e-07 0 -2.0552243296904157e-07 7.0819024737483552e-07 0 -9.5079210444926483e-08 1.4853838609229547e-06 0 -2.2379256330771633e-06 -1.0102240255171412e-06 0 -1.9407887265860791e-06 -3.6818254267125203e-07 0 -9.5558087158163145e-07 -2.9878566814111876e-07 0 -1.4650429266573923e-09 1.7388398536188763e-10 0 -9.5558087158163145e-07 -2.9878566814111871e-07 0 -1.9407887265860791e-06 -3.6818254267125203e-07 0 -3.1152990679058125e-06 1.1852062358223362e-06 0 -1.331951806012469e-06 2.9533956332753663e-07 0 -2.7289247327281334e-06 2.3704510294468215e-07 0 -2.1026195903289627e-09 -3.562358290270534e-10 0 -2.7289247327281334e-06 2.3704510294468215e-07 0 -1.331951806012469e-06 2.9533956332753663e-07 0 -1.1860409602894779e-05 -9.5358841383387669e-06 0 -1.5399149762702022e-05 -1.1341869837280436e-05 0 -1.4370048069099743e-05 -1.3808202282818226e-05 0 -1.8917427394886675e-07 9.6261591642641095e-08 0 -1.9965815195740236e-07 3.0357658950920538e-07 0 -1.7631779918160907e-07 2.799186730334554e-07 0 -4.5567570644262696e-06 6.654508998690544e-05 0 6.1241242537083187e-06 6.1475971111066931e-05 0 7.4322625554025259e-06 7.1945315309582456e-05 0 -7.0843342162428694e-06 1.5778671136950377e-05 0 -9.0483321021801309e-06 1.1286959859985921e-05 0 -4.2095635927883246e-06 1.0171503131432514e-05 0 -4.3251649082280477e-07 4.5943234848993553e-06 0 6.2990519515057598e-07 5.5416638365259917e-06 0 2.6088732390469829e-07 4.0201991895975762e-06 0 -1.241037870988025e-05 -1.7144759231894738e-05 0 -1.1286880614725366e-05 -1.2024043553314366e-05 0 -1.4370048069099743e-05 -1.3808202282818226e-05 0 -4.2859436719749804e-05 0.00018824998055745601 0 -5.8601863442913539e-05 0.00018826998907646054 0 -5.0669555264957351e-05 0.00018009434790335521 0 -1.6642887141498355e-05 -8.8100820485552533e-05 0 -1.0815448174275043e-05 -8.8488238222079213e-05 0 -1.3822640468954592e-05 -8.4991271702876343e-05 0 9.3464958940156637e-07 0.00018926029005126479 0 -1.3194973669704705e-05 0.00018903021862728419 0 -6.2111205532818011e-06 0.00018155384335267127 0 -3.6366156957270061e-05 -8.7458021776902589e-05 0 -2.934930787623396e-05 -8.7449953944581838e-05 0 -3.2814661759907507e-05 -8.3786023942267752e-05 0 -1.3296063759525282e-05 -2.0004136802331731e-05 0 -1.4777988197156534e-05 -1.9949127211502137e-05 0 -1.382433369654792e-05 -2.1209896307801077e-05 0 -7.5827413456850292e-06 -2.2333764921936912e-05 0 -7.0532557776627117e-06 -2.5191653183948146e-05 0 -5.9074977682984522e-06 -2.2785604490371282e-05 0 -2.5107953036611392e-09 -1.07029553916922e-09 0 -9.5558087158163166e-07 -2.9878566814111881e-07 0 -1.4650429266573923e-09 1.7388398536188763e-10 0 -3.3501110945025118e-09 1.4252481239708157e-09 0 -2.1026195903289627e-09 -3.562358290270534e-10 0 -1.331951806012469e-06 2.9533956332753663e-07 0 -3.3501110945025118e-09 1.4252481239708157e-09 0 -1.331951806012469e-06 2.9533956332753663e-07 0 -3.1152990679058125e-06 1.1852062358223362e-06 0 -2.5107953036611392e-09 -1.07029553916922e-09 0 -2.2379256330771633e-06 -1.0102240255171412e-06 0 -9.5558087158163145e-07 -2.9878566814111876e-07 0 -1.0856531363743385e-05 -3.1025481089600112e-05 0 -1.4944151813452053e-05 -2.9288919887448774e-05 0 -1.5474654403776706e-05 -3.6471798832899613e-05 0 -4.4221453952263374e-06 -1.2091366397976279e-07 0 -5.7130650796473047e-06 -7.8624787731724636e-07 0 -4.7449507597176716e-06 -7.0414870663052405e-07 0 -8.8835425609506056e-06 -7.2584356939331843e-06 0 -9.2589068551551226e-06 -9.3038024401873249e-06 0 -7.9374445295552933e-06 -6.9641345215941904e-06 0 -8.0747544705124774e-06 -9.1114755511449001e-06 0 -7.9374445295552933e-06 -6.9641345215941904e-06 0 -9.2589068551551226e-06 -9.3038024401873249e-06 0 -2.4760027009047622e-06 7.2058388323356099e-07 0 -3.3807413270623808e-06 2.4983234730913425e-07 0 -2.5363322792531024e-06 5.8804921409476068e-07 0 -5.6403361509445274e-07 9.3274303718100854e-07 0 -7.3844318175026593e-07 9.0578799505305904e-07 0 -1.0271411920445779e-06 1.0132106044322947e-06 0 -1.2376337039632412e-06 9.6467223017792341e-07 0 -1.0271411920445779e-06 1.0132106044322947e-06 0 -7.3844318175026593e-07 9.0578799505305904e-07 0 -9.5007759941015471e-07 4.84514809598246e-06 0 4.9518869939502908e-07 5.0413232860899594e-06 0 1.7204287821688925e-06 9.6103785537985013e-06 0 5.5930434658575456e-06 1.3766485716258624e-05 0 1.720428782168893e-06 9.610378553798503e-06 0 4.9518869939502898e-07 5.0413232860899594e-06 0 -1.7991578296206977e-05 -1.406470831182835e-05 0 -1.4370048069099743e-05 -1.3808202282818226e-05 0 -1.5399149762702022e-05 -1.1341869837280436e-05 0 -2.7887884316731235e-06 -1.2102288868327698e-05 0 -3.5991173804119082e-06 -1.4446639601048767e-05 0 -7.9328945481060223e-07 -1.2001898362681821e-05 0 -1.3085601444691952e-05 -1.3780536306678065e-05 0 -1.4317799969517854e-05 -1.5106463328932911e-05 0 -1.3553379425410326e-05 -1.5329548805011938e-05 0 -9.7591403186312045e-07 1.094440112840945e-06 0 -1.082185040399261e-06 1.2103786936800027e-06 0 -5.6249184365283028e-07 1.3382977377941477e-06 0 -5.0156551339537293e-06 0.00012080042303967178 0 8.0512770312315573e-06 0.00011414103504184385 0 6.8376223589251713e-06 0.00012623829200212778 0 -3.1657328969069859e-05 -5.6474881535561089e-05 0 -3.7339362933510315e-05 -5.3760908344525295e-05 0 -3.7427022929069646e-05 -5.9435759331767612e-05 0 -6.2447312018101045e-06 -8.2122374759221483e-06 0 -6.0457837407722472e-06 -5.8221480716686801e-06 0 -6.6734494963260055e-06 -6.6662271011287708e-06 0 -1.9552622900776923e-06 -7.5117117230607618e-06 0 6.2834367116931088e-07 -6.0337718207898409e-06 0 -1.976559828800014e-06 -4.4528445703691586e-06 0 -4.9395402943823426e-05 0.00011959801485365489 0 -5.875746160975102e-05 0.00011067885824836238 0 -4.7367980087767836e-05 0.00010552822390247911 0 -1.231365820009146e-05 -5.4756428313199817e-05 0 -7.644561679428298e-06 -4.9726235798948907e-05 0 -1.2065826249681425e-05 -4.7759685761102785e-05 0 -1.0856531363743385e-05 -3.1025481089600112e-05 0 -1.1409053491787179e-05 -3.7332881762392182e-05 0 -7.0467701076790512e-06 -3.4602664390614531e-05 0 -1.2491135201493343e-05 -1.8313811096391978e-05 0 -1.2035873552240942e-05 -1.9681338250124762e-05 0 -1.1015976227881401e-05 -1.8222942805230824e-05 0 -4.6516602429239565e-06 -2.0318013759103788e-05 0 -2.4007629947948059e-06 -1.8549085952092044e-05 0 -4.2859128385089449e-06 -1.7635713586817687e-05 0 -2.899281235050269e-06 1.1108886597835646e-06 0 -2.0709430355986912e-06 4.285530033045274e-07 0 -1.3503732052374677e-06 1.5011675514866148e-06 0 -1.0393603578548487e-05 -2.3432012497898507e-05 0 -8.964070265687094e-06 -2.3995530156139156e-05 0 -9.5596115326589991e-06 -2.1549776133683357e-05 0 -3.5294648811448556e-06 5.1440573131977181e-07 0 -2.571870556997988e-06 7.482257065804313e-07 0 -2.6903272271779964e-06 6.9811787980964691e-07 0 -1.9951091569178923e-06 8.1183665682388437e-07 0 -2.6903272271779964e-06 6.9811787980964691e-07 0 -2.571870556997988e-06 7.482257065804313e-07 0 -2.3356737132274383e-06 6.4156823506990891e-07 0 -3.1676736105900952e-06 -3.1100631516645103e-07 0 -3.5899761206402249e-06 -5.1461614624127239e-07 0 -1.1860409602894779e-05 -9.5358841383387669e-06 0 -1.4370048069099743e-05 -1.3808202282818226e-05 0 -1.1286880614725366e-05 -1.2024043553314366e-05 0 -2.4760027009047622e-06 7.2058388323356099e-07 0 -2.5363322792531024e-06 5.8804921409476068e-07 0 -1.8093685484363796e-06 8.6423748764928035e-07 0 -1.9372057822220483e-06 7.8915379137973661e-07 0 -1.8093685484363796e-06 8.6423748764928035e-07 0 -2.5363322792531024e-06 5.8804921409476068e-07 0 -3.3807413270623808e-06 2.4983234730913425e-07 0 -2.7859047901316781e-06 3.1914386871821071e-07 0 -2.5363322792531024e-06 5.8804921409476068e-07 0 -1.2465016627957473e-05 -2.2908642154125042e-05 0 -1.382433369654792e-05 -2.1209896307801077e-05 0 -1.4283657460979571e-05 -2.245837607586069e-05 0 -1.5611410832669672e-05 -2.0967567320623382e-05 0 -1.4283657460979569e-05 -2.245837607586069e-05 0 -1.382433369654792e-05 -2.1209896307801077e-05 0 -5.4402261791115672e-06 -2.6142833848225366e-05 0 -7.0532557776627117e-06 -2.5191653183948142e-05 0 -6.467222263986998e-06 -2.831968885292381e-05 0 -7.9992049275283167e-06 -2.6080065167074425e-05 0 -6.467222263986998e-06 -2.831968885292381e-05 0 -7.0532557776627117e-06 -2.5191653183948142e-05 0 -9.5007759941015471e-07 4.84514809598246e-06 0 -1.9823547345293539e-06 4.8024751445400962e-07 0 4.9518869939502898e-07 5.0413232860899594e-06 0 -7.6403563844027154e-07 0.00017175112732089386 0 -6.2111205532818011e-06 0.00018155384335267127 0 -1.459470606624626e-05 0.0001747667935516068 0 -3.5453909578047573e-05 -7.9303495045510399e-05 0 -3.2814661759907507e-05 -8.3786023942267752e-05 0 -2.8810620523146576e-05 -8.0944301119877029e-05 0 -1.1584311685260419e-05 -8.0543470504308967e-05 0 -1.7307582973749473e-05 -8.1774896665953557e-05 0 -1.3822640468954592e-05 -8.4991271702876343e-05 0 -5.6618879376758558e-05 0.00017022368515604748 0 -4.1608205010471021e-05 0.00017370990609997622 0 -5.0669555264957351e-05 0.00018009434790335521 0 -4.9395402943823426e-05 0.00011959801485365489 0 -4.7367980087767836e-05 0.00010552822390247911 0 -3.7349270714131421e-05 0.00010938639598577803 0 -1.231365820009146e-05 -5.4756428313199817e-05 0 -1.2065826249681425e-05 -4.7759685761102785e-05 0 -1.6639063668892879e-05 -4.9673286387473337e-05 0 -1.0856531363743385e-05 -3.1025481089600112e-05 0 -1.5474654403776706e-05 -3.6471798832899613e-05 0 -1.140905349178718e-05 -3.7332881762392182e-05 0 -4.0321651383737114e-06 -1.3488289602268464e-06 0 -3.5899761206402249e-06 -5.1461614624127239e-07 0 -3.1676736105900952e-06 -3.1100631516645103e-07 0 -1.3194973669704705e-05 0.00018903021862728419 0 -1.459470606624626e-05 0.0001747667935516068 0 -6.2111205532818011e-06 0.00018155384335267127 0 -2.934930787623396e-05 -8.7449953944581838e-05 0 -2.8810620523146576e-05 -8.0944301119877029e-05 0 -3.2814661759907507e-05 -8.3786023942267752e-05 0 -4.2859436719749804e-05 0.00018824998055745601 0 -5.0669555264957351e-05 0.00018009434790335521 0 -4.1608205010471021e-05 0.00017370990609997622 0 -1.6642887141498355e-05 -8.8100820485552533e-05 0 -1.3822640468954592e-05 -8.4991271702876343e-05 0 -1.7307582973749473e-05 -8.1774896665953557e-05 0 -1.0797520065819218e-05 -1.9965853257757255e-05 0 -1.1015976227881401e-05 -1.8222942805230824e-05 0 -1.2035873552240942e-05 -1.9681338250124762e-05 0 -3.7517315318397694e-06 -1.6053937694775604e-05 0 -8.3703023998277867e-06 -1.4981168028424143e-05 0 -6.0408649000377779e-06 -1.9930816007688189e-05 0 -1.7421962927804545e-05 -2.2576076891642923e-05 0 -1.661824757511148e-05 -2.1567861647346286e-05 0 -1.6792280667579599e-05 -2.1198737483318625e-05 0 -1.923446341956298e-06 -2.6099717887095668e-05 0 -3.6401896312202511e-06 -2.5850287633254676e-05 0 -4.4188506178323768e-06 -2.8869803159296541e-05 0 -5.6403361509445274e-07 9.3274303718100854e-07 0 -4.3075463750144721e-07 7.1654078349568714e-07 0 -7.3844318175026593e-07 9.0578799505305904e-07 0 -5.3922774189437252e-05 9.4543317041158889e-05 0 -5.445098665949126e-05 7.9406388025545036e-05 0 -4.4075069145138461e-05 8.2064345265256861e-05 0 -4.2758694471125815e-05 7.0499538814283505e-05 0 -4.4075069145138461e-05 8.2064345265256861e-05 0 -5.445098665949126e-05 7.9406388025545036e-05 0 -9.69885402708941e-06 -1.6444098698922133e-05 0 -1.130134042372868e-05 -1.6451940341249483e-05 0 -1.1015976227881401e-05 -1.8222942805230824e-05 0 -2.3704212609052815e-06 4.5933513997244817e-07 0 -2.7859047901316781e-06 3.1914386871821071e-07 0 -3.1915051045197663e-06 -1.6778985742184237e-07 0 -8.8835425609506056e-06 -7.2584356939331843e-06 0 -7.9374445295552933e-06 -6.9641345215941904e-06 0 -7.882092223764956e-06 -5.3270610490789196e-06 0 -6.8362388813244744e-06 -4.413853384848852e-06 0 -7.882092223764956e-06 -5.3270610490789196e-06 0 -7.9374445295552933e-06 -6.9641345215941904e-06 0 -3.7681828889946413e-05 9.3866196724609732e-05 0 -3.7349270714131421e-05 0.00010938639598577803 0 -4.7367980087767836e-05 0.00010552822390247911 0 -1.4986935139650489e-05 -4.2668358999221456e-05 0 -1.6639063668892879e-05 -4.9673286387473337e-05 0 -1.2065826249681425e-05 -4.7759685761102785e-05 0 -1.4986935139650489e-05 -4.2668358999221456e-05 0 -1.140905349178718e-05 -3.7332881762392182e-05 0 -1.5474654403776706e-05 -3.6471798832899613e-05 0 -2.7890405046268195e-06 -1.1850189397893811e-07 0 -4.2511916018433089e-06 -2.4106491829006714e-07 0 -3.1896261820028556e-06 1.569664482206192e-07 0 -3.8173095959006502e-06 -2.3875817055375508e-07 0 -4.1536872043838858e-06 -6.2733699732903658e-07 0 -5.8317482277476964e-06 -1.6987648951996743e-07 0 -7.9824122071282966e-06 5.6614682042516636e-07 0 -5.8317482277476964e-06 -1.6987648951996743e-07 0 -7.4715075095203277e-06 2.8960041766735675e-08 0 -5.6161140544497388e-06 -7.9836727165251471e-07 0 -5.5070677085980293e-06 -3.9605775479141604e-07 0 -4.2511916018433089e-06 -2.4106491829006703e-07 0 -3.4575571492859914e-06 -5.8437913924035322e-07 0 -3.1676736105900952e-06 -3.1100631516645103e-07 0 -2.5754779225934786e-06 2.3646085572599752e-07 0 -5.3922774189437252e-05 9.4543317041158889e-05 0 -4.7367980087767836e-05 0.00010552822390247911 0 -5.875746160975102e-05 0.00011067885824836238 0 -8.5215425706079627e-06 -4.2103610783982337e-05 0 -1.2065826249681425e-05 -4.7759685761102785e-05 0 -7.644561679428298e-06 -4.9726235798948907e-05 0 -8.5215425706079627e-06 -4.2103610783982337e-05 0 -7.0467701076790512e-06 -3.4602664390614531e-05 0 -1.140905349178718e-05 -3.7332881762392182e-05 0 -1.8763206920369128e-05 -2.7304073613214447e-05 0 -2.3263356734807656e-05 -2.7343571706062275e-05 0 -2.3171955140665421e-05 -3.2030803984153189e-05 0 -1.2491135201493343e-05 -1.8313811096391978e-05 0 -1.1015976227881401e-05 -1.8222942805230824e-05 0 -1.130134042372868e-05 -1.6451940341249483e-05 0 -2.899281235050269e-06 1.1108886597835646e-06 0 -2.7595479392042505e-06 2.4135716771486548e-06 0 -4.7864503053467341e-06 1.6730681116690001e-06 0 -4.7638566716763714e-06 -2.1810259970285536e-06 0 -4.0432757352458891e-06 -1.0052364524185366e-06 0 -4.9573547699935102e-06 -1.5663455855062938e-06 0 -4.1665002903552793e-06 1.4775477761508219e-07 0 -5.6094282787206161e-06 -2.1210171134635028e-07 0 -4.4794893967564378e-06 2.2465102053871238e-07 0 -3.7948160034657052e-05 4.6630540118989538e-05 0 -3.0066987478286478e-05 4.7491288433189506e-05 0 -3.5938430785157987e-05 5.8553226408507366e-05 0 -2.441098452401508e-05 -2.2068639087989495e-05 0 -2.3263356734807656e-05 -2.7343571706062275e-05 0 -2.0929528074110687e-05 -2.258861952185946e-05 0 -5.0156551339537293e-06 0.00012080042303967178 0 -1.6969323054994485e-05 0.00012048979703211407 0 -1.1197875898794553e-05 0.00010974635689085087 0 -3.1657328969069859e-05 -5.6474881535561089e-05 0 -2.6263663985217614e-05 -5.6118117892439145e-05 0 -2.8039799350563467e-05 -5.0817631006123266e-05 0 -4.5567570644262696e-06 6.654508998690544e-05 0 -1.1182079018481046e-05 7.7681473495325241e-05 0 -1.8228421723032017e-05 6.7611675052938299e-05 0 -6.465253581996435e-06 -7.7847698225015358e-07 0 -7.3118861037852236e-06 -9.4959932912594743e-07 0 -8.4358509591131073e-06 -1.7142054140323353e-06 0 -3.8176463357399423e-06 -4.3034222754621878e-07 0 -3.1915051045197663e-06 -1.6778985742184237e-07 0 -2.7859047901316781e-06 3.1914386871821071e-07 0 -2.0517426441382268e-05 -3.6430033581407737e-05 0 -2.3171955140665421e-05 -3.2030803984153189e-05 0 -2.5612817964906648e-05 -3.6816155041353841e-05 0 -1.5611410832669672e-05 -2.0967567320623382e-05 0 -1.6792280667579599e-05 -2.1198737483318625e-05 0 -1.661824757511148e-05 -2.1567861647346286e-05 0 -5.4402261791115672e-06 -2.6142833848225366e-05 0 -4.4188506178323768e-06 -2.8869803159296541e-05 0 -3.6401896312202511e-06 -2.5850287633254676e-05 0 -1.9372057822220483e-06 7.8915379137973661e-07 0 -2.5363322792531024e-06 5.8804921409476068e-07 0 -2.7859047901316781e-06 3.1914386871821071e-07 0 -5.8601863442913539e-05 0.00018826998907646054 0 -6.3927111626615191e-05 0.00017919694647989089 0 -5.0669555264957351e-05 0.00018009434790335521 0 -5.6618879376758558e-05 0.00017022368515604748 0 -5.0669555264957351e-05 0.00018009434790335521 0 -6.3927111626615191e-05 0.00017919694647989089 0 -1.1584311685260419e-05 -8.0543470504308967e-05 0 -1.3822640468954592e-05 -8.4991271702876343e-05 0 -8.8577465338262697e-06 -8.4765739796810054e-05 0 -1.0815448174275043e-05 -8.8488238222079213e-05 0 -8.8577465338262697e-06 -8.4765739796810054e-05 0 -1.3822640468954592e-05 -8.4991271702876343e-05 0 9.3464958940156637e-07 0.00018926029005126479 0 -6.2111205532818011e-06 0.00018155384335267127 0 5.7497780910905231e-06 0.0001806075303716136 0 -3.6366156957270061e-05 -8.7458021776902589e-05 0 -3.2814661759907507e-05 -8.3786023942267752e-05 0 -3.8762403171306296e-05 -8.3374678635389385e-05 0 -7.6403563844027154e-07 0.00017175112732089386 0 5.7497780910905231e-06 0.0001806075303716136 0 -6.2111205532818011e-06 0.00018155384335267127 0 -3.5453909578047573e-05 -7.9303495045510399e-05 0 -3.8762403171306296e-05 -8.3374678635389385e-05 0 -3.2814661759907507e-05 -8.3786023942267752e-05 0 -9.69885402708941e-06 -1.6444098698922133e-05 0 -1.1015976227881401e-05 -1.8222942805230824e-05 0 -9.5691886426894119e-06 -1.8485106731046429e-05 0 -1.2969460783003737e-05 -1.6274253738223162e-05 0 -1.2193336701053909e-05 -1.3930143465561481e-05 0 -1.3553379425410326e-05 -1.5329548805011938e-05 0 -1.3085601444691952e-05 -1.3780536306678065e-05 0 -1.3553379425410326e-05 -1.5329548805011938e-05 0 -1.2193336701053909e-05 -1.3930143465561481e-05 0 -1.0797520065819218e-05 -1.9965853257757255e-05 0 -1.2035873552240942e-05 -1.9681338250124762e-05 0 -1.1882742234904629e-05 -2.1326284938855963e-05 0 -1.3296063759525282e-05 -2.0004136802331731e-05 0 -1.1882742234904629e-05 -2.1326284938855963e-05 0 -1.2035873552240942e-05 -1.9681338250124762e-05 0 1.3055629795451211e-06 7.4745935138232153e-06 0 -8.632538935980228e-08 5.6799308448293368e-06 0 -4.6854961827511274e-07 6.1934808856987066e-06 0 -5.1106202634957973e-06 3.7586738663112863e-06 0 -8.4593714131670961e-06 5.4173721398035571e-06 0 -7.6614043021496984e-06 2.8485394998040508e-06 0 -1.1400240939941121e-05 4.4579060504971218e-06 0 -7.6614043021496984e-06 2.8485394998040508e-06 0 -8.4593714131670961e-06 5.4173721398035571e-06 0 -6.465253581996435e-06 -7.7847698225015358e-07 0 -7.4810448531955613e-06 -1.8049535169918275e-06 0 -5.7130650796473047e-06 -7.8624787731724636e-07 0 -3.7948160034657052e-05 4.6630540118989538e-05 0 -2.9872943535962761e-05 3.808313817143696e-05 0 -3.0066987478286478e-05 4.7491288433189506e-05 0 -2.1698826480442415e-05 3.9586743697717711e-05 0 -3.0066987478286478e-05 4.7491288433189506e-05 0 -2.9872943535962761e-05 3.808313817143696e-05 0 -4.3251649082280477e-07 4.5943234848993553e-06 0 -8.632538935980228e-08 5.6799308448293368e-06 0 6.2990519515057598e-07 5.5416638365259917e-06 0 -5.6281527828720481e-06 -1.6190778712245964e-05 0 -6.2206107001831561e-06 -1.9083704691581699e-05 0 -4.2859128385089449e-06 -1.7635713586817687e-05 0 -4.6516602429239565e-06 -2.0318013759103788e-05 0 -4.2859128385089449e-06 -1.7635713586817687e-05 0 -6.2206107001831561e-06 -1.9083704691581699e-05 0 6.9075472012127541e-07 4.606317835810363e-06 0 6.2990519515057598e-07 5.5416638365259917e-06 0 1.1741655136651397e-06 6.4529464868279264e-06 0 -1.7066409491090954e-05 -1.9096314978726561e-05 0 -2.0688663770215573e-05 -1.8504044399374115e-05 0 -2.0929528074110687e-05 -2.258861952185946e-05 0 -2.441098452401508e-05 -2.2068639087989495e-05 0 -2.0929528074110687e-05 -2.258861952185946e-05 0 -2.0688663770215573e-05 -1.8504044399374115e-05 0 -9.2611263642459435e-09 3.0713410518430227e-06 0 -5.4057240373750842e-07 3.4212019925068649e-06 0 2.6088732390469829e-07 4.0201991895975762e-06 0 6.9075472012127541e-07 4.606317835810363e-06 0 2.6088732390469829e-07 4.0201991895975762e-06 0 6.2990519515057598e-07 5.5416638365259917e-06 0 -1.3085601444691952e-05 -1.3780536306678065e-05 0 -1.3420952579097706e-05 -1.2887173413280708e-05 0 -1.4317799969517854e-05 -1.5106463328932911e-05 0 -3.8176463357399423e-06 -4.3034222754621878e-07 0 -4.0432757352458891e-06 -1.0052364524185366e-06 0 -3.1915051045197663e-06 -1.6778985742184237e-07 0 -3.4575571492859914e-06 -5.8437913924035322e-07 0 -3.1915051045197663e-06 -1.6778985742184237e-07 0 -4.0432757352458891e-06 -1.0052364524185366e-06 0 -2.3356737132274383e-06 6.4156823506990891e-07 0 -2.5754779225934786e-06 2.3646085572599752e-07 0 -3.1676736105900952e-06 -3.1100631516645103e-07 0 1.8753155808835989e-05 0.00011769505139159567 0 6.8376223589251704e-06 0.00012623829200212778 0 8.0512770312315573e-06 0.00011414103504184385 0 -4.2586013451718304e-05 -5.6612059851307659e-05 0 -3.7427022929069639e-05 -5.9435759331767612e-05 0 -3.7339362933510315e-05 -5.3760908344525295e-05 0 -9.2994763327465179e-06 -1.7476967791776676e-06 0 -8.4358509591131073e-06 -1.7142054140323353e-06 0 -7.3118861037852236e-06 -9.4959932912594743e-07 0 -2.7534645413306334e-10 1.5343813366506768e-10 0 -2.1700550761011372e-07 3.306887614565036e-07 0 -1.6239571578634827e-07 2.6197442461341995e-07 0 1.6837761618935912e-05 6.6665292138753116e-05 0 7.4322625554025259e-06 7.1945315309582456e-05 0 6.1241242537083187e-06 6.1475971111066931e-05 0 -1.0797520065819218e-05 -1.9965853257757255e-05 0 -9.5691886426894119e-06 -1.8485106731046429e-05 0 -1.1015976227881401e-05 -1.8222942805230824e-05 0 -6.8709677652300387e-06 1.1820474547025482e-06 0 -7.6614043021496984e-06 2.8485394998040508e-06 0 -1.0143278748857422e-05 2.4645642487067783e-06 0 -1.1400240939941121e-05 4.4579060504971218e-06 0 -1.014327874885742e-05 2.4645642487067783e-06 0 -7.6614043021496984e-06 2.8485394998040508e-06 0 -1.5006644505369508e-05 -1.4399384329855696e-05 0 -1.4317799969517854e-05 -1.5106463328932911e-05 0 -1.3420952579097706e-05 -1.2887173413280708e-05 0 
</DataArray>
</PointData>
<CellData Scalars="region_id,cross_section_updated,displacement_divergence," Vectors="" Tensors="stress,">
<DataArray type="Float64" Name="region_id" format="ascii">
2 2 2 2 2 2 2 2 2 2 3 3 3 3 3 3 3 3 3 3 1 1 1 1 1 1 1 1 1 1 1 1 1 1 1 1 1 1 1 1 1 1 1 1 1 1 1 1 1 1 1 1 1 1 1 1 1 1 1 1 1 1 1 1 1 1 1 1 1 1 1 1 1 1 1 1 1 1 1 1 1 1 1 1 1 1 1 1 1 1 1 1 1 1 1 1 1 1 1 1 1 1 1 1 1 1 1 1 1 1 1 1 1 1 1 1 1 1 1 1 1 1 1 1 1 1 1 1 1 1 1 1 1 1 1 1 1 1 1 1 1 1 1 1 1 1 1 1 1 1 1 1 1 1 1 1 1 1 1 1 1 1 1 1 1 1 1 1 1 1 1 1 1 1 1 1 1 1 1 1 1 1 1 1 1 1 1 1 1 1 1 1 1 1 1 1 1 1 1 1 1 1 1 1 1 1 1 1 1 1 1 1 1 1 1 1 1 1 1 1 1 1 1 1 1 1 1 1 1 1 1 1 1 1 1 1 1 1 1 1 1 1 1 1 1 1 1 1 1 1 1 1 1 1 1 1 1 1 1 1 1 1 1 1 1 1 1 1 1 1 1 1 1 1 1 1 1 1 1 1 1 1 1 1 1 1 1 1 1 1 1 1 1 1 1 1 1 1 1 1 1 1 1 1 1 1 1 1 1 1 1 1 1 1 1 1 1 1 1 1 1 1 1 1 1 1 1 1 1 1 1 1 1 1 1 1 1 1 1 1 1 1 1 1 1 1 1 1 1 1 1 1 1 1 1 1 1 1 1 1 1 1 1 1 1 1 1 1 1 1 1 1 1 1 1 1 1 1 1 1 1 1 1 1 1 1 1 1 1 1 1 1 1 1 1 1 1 1 1 1 1 1 1 1 1 1 1 1 1 1 1 1 1 1 1 1 1 1 1 1 1 1 1 1 1 1 1 1 1 1 1 1 1 1 1 1 1 1 1 1 1 1 1 1 1 1 1 1 1 1 1 1 1 1 1 1 1 1 1 1 1 1 1 1 1 1 1 1 1 1 1 1 1 1 1 1 1 1 1 1 1 1 1 1 1 1 1 1 1 1 1 1 1 1 1 1 1 1 1 1 1 1 1 1 1 1 1 1 1 1 1 1 1 1 1 1 1 1 1 1 1 1 1 1 1 1 1 1 1 1 1 1 1 1 1 1 1 1 1 1 1 1 1 1 1 1 1 1 1 1 1 1 1 1 1 1 1 1 1 1 1 1 1 1 1 1 1 1 1 1 1 1 1 1 1 1 1 1 1 1 1 1 1 1 1 1 1 1 1 1 1 1 1 1 1 1 1 1 1 1 1 1 1 1 1 1 1 1 1 1 1 1 1 1 1 1 1 1 1 1 1 1 1 1 1 1 1 1 1 1 1 1 1 1 1 1 1 1 1 1 1 1 1 1 1 1 1 1 1 1 1 1 1 1 1 1 1 1 1 1 1 1 1 1 1 1 1 1 1 1 1 1 1 1 1 1 1 1 1 1 1 1 1 1 1 1 1 1 1 1 1 1 1 1 1 1 1 1 1 1 1 1 1 1 1 1 1 1 1 1 1 1 1 1 1 1 1 1 1 1 1 1 1 1 1 1 1 1 1 1 1 1 1 1 1 1 1 1 1 1 1 1 1 1 1 1 1 1 1 1 1 1 1 1 1 1 1 1 1 1 1 1 1 1 1 1 1 1 1 1 1 1 1 1 1 1 1 1 1 1 1 1 1 1 1 1 1 1 1 1 1 1 1 1 1 1 1 1 1 1 1 1 1 1 1 1 1 1 1 1 1 1 1 1 1 1 1 1 1 1 1 1 1 1 1 1 1 1 1 1 1 1 1 1 1 1 1 1 1 1 1 1 1 1 1 1 1 1 1 1 1 1 1 1 1 1 1 1 1 1 1 1 1 1 1 1 1 1 1 1 1 1 1 1 1 1 1 1 1 1 1 1 1 1 1 1 1 1 1 1 1 1 1 1 1 1 1 1 1 1 1 1 1 1 1 1 1 1 1 1 1 1 1 1 1 1 1 1 1 1 1 1 1 1 1 1 1 1 1 1 1 1 1 1 1 1 1 1 1 1 1 1 1 1 1 1 1 1 1 1 1 1 1 1 1 1 1 1 1 1 1 1 1 1 1 1 1 1 1 1 1 1 1 1 1 1 1 1 1 1 1 1 1 1 1 1 1 1 1 1 1 1 1 1 1 1 1 1 1 1 1 1 1 1 1 1 1 1 1 1 1 1 1 1 1 1 1 1 1 1 1 1 1 1 1 1 1 1 1 1 1 1 1 1 1 1 1 1 1 1 1 1 1 1 1 1 1 1 1 1 1 1 1 1 
</DataArray>
<DataArray type="Float64" Name="stress" NumberOfComponents="9" format="ascii">
0.0017891206449846678 -0.0011876821720229736 0 -0.0011876821720229736 0.0053962884550722116 0 0 0 0.0017963522750142199 0.0045063556837060008 -0.0030709866489987462 0 -0.0030709866489987462 0.013551639561869529 0 0 0 0.0045144988113938822 0.0063190724147726392 -0.0042809878892100502 0 -0.0042809878892100502 0.018998115036706894 0 0 0 0.0063292968628698839 0.0081617230185618197 -0.0050865016941631066 0 -0.0050865016941631066 0.024522630789392867 0 0 0 0.0081710884519886704 0.010200645378137705 -0.0055749141989133262 0 -0.0055749141989133262 0.030634756699213943 0 0 0 0.010208850519337915 0.012551128859751806 -0.0058061603043340574 0 -0.0058061603043340574 0.037685156160792876 0 0 0 0.012559071255136171 0.015279334644651237 -0.0058083260947213548 0 -0.0058083260947213548 0.045876116540607394 0 0 0 0.015288862796314662 0.018238779223922225 -0.0056537197972619429 0 -0.0056537197972619429 0.0547598334464326 0 0 0 0.018249653167588708 0.021433245753986935 -0.0053818444609617282 0 -0.0053818444609617282 0.064323457804157672 0 0 0 0.021439175889536151 0.024424275254664975 -0.0051221440799310812 0 -0.0051221440799310812 0.073388388641355912 0 0 0 0.024453165974005223 0.0034424019269404566 0.0007604188845602174 0 0.0007604188845602174 0.010154905595672585 0 0 0 0.0033993268806532602 0.0088431574854890282 0.0018613907565327014 0 0.0018613907565327014 0.026505864871094305 0 0 0 0.0088372555891458333 0.012797088776563286 0.0026357308121698732 0 0.0026357308121698732 0.038375621349497034 0 0 0 0.01279317753151508 0.016579549142912962 0.0031460742200907807 0 0.0031460742200907807 0.049738826355156883 0 0 0 0.016579593874517462 0.020472090236800973 0.003499296532964092 0 0.003499296532964092 0.061431584271096268 0 0 0 0.020475918626974308 0.024512188070878165 0.0037285500260273129 0 0.0037285500260273129 0.073568698741924607 0 0 0 0.02452022170320069 0.028745849516318464 0.0038009912612356565 0 0.0038009912612356565 0.086284914390642731 0 0 0 0.028757690976740295 0.03300280802504154 0.0038185520580892528 0 0.0038185520580892528 0.099117220118053281 0 0 0 0.033030007035773704 0.037373917740442408 0.0036682386582066935 0 0.0036682386582066935 0.11205616060857029 0 0 0 0.037357519587253175 0.041219063809441674 0.0035996099204458802 0 0.0035996099204458802 0.12432838491583958 0 0 0 0.041386862181320309 -0.014806511669067237 -0.0048648536994398348 0 -0.0048648536994398348 0.010340541735431433 0 0 0 -0.0011164924834089519 -0.012404824541182607 -0.0049463907588633586 0 -0.0049463907588633586 0.019583002369553765 0 0 0 0.0017945444570927893 -0.027438575344696584 -0.0055997384744677567 0 -0.0055997384744677567 0.017051032240713332 0 0 0 -0.0025968857759958303 -0.025952792768929568 -8.2853711214789239e-05 0 -8.2853711214789239e-05 0.018647060737907652 0 0 0 -0.001826433007755473 -0.062585776803459003 -0.003598341162379357 0 -0.003598341162379357 0.0014102198767544771 0 0 0 -0.015293889231676128 -0.043763920681132079 0.0012719030689040426 0 0.0012719030689040426 0.00043480112055812605 0 0 0 -0.010832279890143492 -0.0661781627005259 -0.0022145329735099271 0 -0.0022145329735099271 -0.00061000586977509683 0 0 0 -0.016697042142575252 -0.045243241581813386 0.00070902071916679348 0 0.00070902071916679348 -0.00037061416738511967 0 0 0 -0.011403463937299629 -0.05938639464521131 0.0023238830069564967 0 0.0023238830069564967 -0.00031053153324046151 0 0 0 -0.014924231544612943 -0.10334979551478828 -0.0059068579898879873 0 -0.0059068579898879873 -0.00045302375863827404 0 0 0 -0.025950704818356644 0.00096511556044197679 0.0012398715074599268 0 0.0012398715074599268 -0.0079935866025308 0 0 0 -0.0017571177605222056 -0.001321555346722264 0.0013489107743652501 0 0.0013489107743652501 -0.0068681221716706802 0 0 0 -0.0020474193795982365 -0.017614298155739491 0.0037942503478431101 0 0.0037942503478431101 -0.0033065442524073882 0 0 0 -0.005230210602036719 -0.016271322064262881 -0.00500343768746971 0 -0.00500343768746971 -0.005426357314214935 0 0 0 -0.0054244198446194523 -0.018433828956954935 0.0043855101584407098 0 0.0043855101584407098 -0.0061449483262127 0 0 0 -0.0061446943207919087 -0.027576353030465461 -0.008503313769546661 0 -0.008503313769546661 0.011203375850732639 0 0 0 -0.0040932442949331987 0.081421655157564721 0.055020099048878821 0 0.055020099048878821 0.10278758688826062 0 0 0 0.046052310511456307 -0.0022113305880475664 -0.0077348470084402932 0 -0.0077348470084402932 -0.014477746634040223 0 0 0 -0.0041722693055219473 0.0014291371025072497 0.006281860330538569 0 0.006281860330538569 -0.0069974210911873946 0 0 0 -0.0013920709971699807 -0.0023254612005412234 0.010053410301012608 0 0.010053410301012608 -0.018261216000417413 0 0 0 -0.0051466693002395481 0.00090952768141450147 -0.0047246171965558813 0 -0.0047246171965558813 -0.0051151718257957945 0 0 0 -0.0010514110360954065 -0.0050906778300989775 0.017543010674062609 0 0.017543010674062609 -0.0079000899734504859 0 0 0 -0.0032476919508872548 -0.006464418865457483 -0.016117584896948589 0 -0.016117584896948589 -0.01007218044028857 0 0 0 -0.0041341498264364784 -0.015164543872269126 0.0049508182955723679 0 0.0049508182955723679 -0.0035551363947608191 0 0 0 -0.0046799200667574821 0.088520179150556322 -0.0040229803711036849 0 -0.0040229803711036849 0.060681845726035882 0 0 0 0.037300506219148051 -0.12887359492616565 0.0058894250573482687 0 0.0058894250573482687 0.0037534812725421585 0 0 0 -0.031280028413405853 -0.06941734517276571 -0.0020457971447445334 0 -0.0020457971447445334 0.00146657394109867 0 0 0 -0.016987692807916718 -0.045360463101900554 -0.010383285250565579 0 -0.010383285250565579 0.0084067176571955005 0 0 0 -0.009238436361176279 -0.053568692900985843 0.0070918868551945423 0 0.0070918868551945423 0.030632464936167447 0 0 0 -0.0057340569912046058 -0.056581245000426127 -0.01413644685577406 0 -0.01413644685577406 0.003345413436471413 0 0 0 -0.013308957890988696 -0.017391790791628791 -0.0072260247559805804 0 -0.0072260247559805804 0.027380508324119927 0 0 0 0.0024971793831227822 -0.014838410664147567 -0.019892557788368626 0 -0.019892557788368626 -0.00052826569771996512 0 0 0 -0.003841669090466876 -0.01663383790434142 0.028008695891249435 0 0.028008695891249435 -0.0038551833487253662 0 0 0 -0.0051222553132668769 -0.014150140151334478 -0.020835238456423155 0 -0.020835238456423155 0.0022020701604827941 0 0 0 -0.0029870174977129071 -0.023620211173083883 0.029396692655156764 0 0.029396692655156764 -0.0032598279045967793 0 0 0 -0.0067200097694198879 -0.038995035035195476 -0.017621687372588998 0 -0.017621687372588998 0.0010110178566928238 0 0 0 -0.0094960042946256665 -0.0078852236434429918 -0.017976260367196028 0 -0.017976260367196028 0.033068205642935472 0 0 0 0.0062957454998731188 -0.06186791293625922 0.0015041133574801996 0 0.0015041133574801996 0.0071162524867560417 0 0 0 -0.013687915112375812 0.14982342522294123 0.057519171191777234 0 0.057519171191777234 0.033296791020688277 0 0 0 0.045780054060907349 0.00043844383570160184 0.0057378114446579309 0 0.0057378114446579309 -0.015823243337309612 0 0 0 -0.0038461998754019955 4.6534678035448085e-05 -0.0069891677101538777 0 -0.0069891677101538777 -0.010999143781984189 0 0 0 -0.002738152275987199 -0.014592965166931218 -0.0075904270127069746 0 -0.0075904270127069746 0.040043018862274675 0 0 0 0.0063625134238358668 -0.00041143642475216513 -0.01518677854903594 0 -0.01518677854903594 0.021160197535668113 0 0 0 0.0051871902777289591 -0.0062153739518209239 0.0036668357535059037 0 0.0036668357535059037 -0.0024366277677909665 0 0 0 -0.002163000429902695 -0.0093991334058128821 -0.0036841160021655176 0 -0.0036841160021655176 -0.007456560257471794 0 0 0 -0.0042139234158211697 -0.012426299560101597 0.0053886176690460851 0 0.0053886176690460851 -0.0048815452719822554 0 0 0 -0.0043269612080209623 -0.034102356601791603 0.029059764493649165 0 0.029059764493649165 0.032101473926948995 0 0 0 -0.00050022066871067625 -0.028273685720734763 0.023613467387601617 0 0.023613467387601617 0.023995051805892939 0 0 0 -0.0010696584787104543 0.073076826741974493 0.072443821518156259 0 0.072443821518156259 0.11867701651456938 0 0 0 0.047938460814135955 -0.009382381312864764 0.0071865479364294771 0 0.0071865479364294771 0.00067577290007760082 0 0 0 -0.0021766521031967648 -0.0091788651139223174 -0.016504936581769991 0 -0.016504936581769991 0.02106196498310791 0 0 0 0.0029707749672963982 -0.01248877447144664 -0.0082900444711921373 0 -0.0082900444711921373 -0.019882434907841584 0 0 0 -0.0080928023448220143 -0.016853628074524358 -0.0074460088691583846 0 -0.0074460088691583846 0.031300842697248976 0 0 0 0.0036118036556811537 -0.01392261400656207 -0.011795525372543494 0 -0.011795525372543494 0.007091402328609081 0 0 0 -0.0017078029194882369 -0.009763852066860354 -0.0031729377037631595 0 -0.0031729377037631595 0.0057805475723861632 0 0 0 -0.00099582612361855116 -0.069940588622332822 0.0099401107050975934 0 0.0099401107050975934 -0.00088170820270927486 0 0 0 -0.017705574206260455 -0.0066252084597470673 -0.0045334208213947402 0 -0.0045334208213947402 0.00041293790457697099 0 0 0 -0.001553067638792538 -0.0039081639188078832 0.019408652028484963 0 0.019408652028484963 0.038880741204788016 0 0 0 0.0087431443214949223 -0.0082182346827501824 -0.015801362344320613 0 -0.015801362344320613 0.036006122117584242 0 0 0 0.0069469718587086265 -0.0021613712585053513 0.0020087331500385766 0 0.0020087331500385766 -0.00027641536842448744 0 0 0 -0.0006094466567325707 -0.013950516502981153 0.00050886275081328536 0 0.00050886275081328536 -0.010491192503559121 0 0 0 -0.0061104272516350755 0.01103815476858879 -0.029100258873798732 0 -0.029100258873798732 0.047310162903054384 0 0 0 0.014587079417910783 -0.011316228402391382 -0.00096094406624620821 0 -0.00096094406624620821 -0.0048531830215877703 0 0 0 -0.0040423528559948296 -0.012693192911745685 -0.00490286883971555 0 -0.00490286883971555 0.0012645645002927752 0 0 0 -0.002857157102863217 -0.020945605454511351 -0.017698103445493642 0 -0.017698103445493642 0.0063872140694933854 0 0 0 -0.0036395978462545053 -0.040860252535335782 -0.00063905710479152784 0 -0.00063905710479152784 -0.0062072750360053185 0 0 0 -0.011766881892835278 -0.057337246772780431 -0.0017411907765440416 0 -0.0017411907765440416 -0.008529963944614135 0 0 0 -0.016466802679348639 0.0013617794983778304 0.0020373917841171596 0 0.0020373917841171596 -0.026757898378436389 0 0 0 -0.0063490297200146251 0.001909768271230794 -0.003288629340442828 0 -0.003288629340442828 -0.02244898969740361 0 0 0 -0.0051348053565432039 -0.040399812987880042 -0.006743208294620928 0 -0.006743208294620928 -0.010040975496974452 0 0 0 -0.012610197121213623 -0.031712083985604447 0.0030333001071030105 0 0.0030333001071030105 -0.0071464865687796229 0 0 0 -0.0097146426385960171 -0.0038668511262459921 -0.00077656463365238923 0 -0.00077656463365238923 -0.0082694744039602981 0 0 0 -0.003034081382551573 -0.044733591961499404 0.0025926359200949536 0 0.0025926359200949536 0.0003277000619575064 0 0 0 -0.011101472974885477 -0.064964567974060083 -0.0059307572803749733 0 -0.0059307572803749733 0.0010676773178512691 0 0 0 -0.015974222664052202 -0.013645791256855264 -0.010165522235545583 0 -0.010165522235545583 -0.00016493538637063487 0 0 0 -0.0034526816608064642 -0.01382513111495038 -0.011580547376811551 0 -0.011580547376811551 0.0070738036001203874 0 0 0 -0.0016878318787075033 0.0056539619261166685 0.016809919264362927 0 0.016809919264362927 0.04248633363614851 0 0 0 0.012035073890566128 -0.0046959844183119964 -0.0025709131114397543 0 -0.0025709131114397543 -0.0017283952918930867 0 0 0 -0.0016060949275513853 -0.013815205323546006 -0.010027200471279626 0 -0.010027200471279626 -6.5153815293761408e-05 0 0 0 -0.0034700897847099316 -0.013242030652397593 -0.0071870119476974831 0 -0.0071870119476974831 -0.0085809386158712253 0 0 0 -0.005455742317067188 -0.034588935250693398 0.032059368332016142 0 0.032059368332016142 0.0016061492734809057 0 0 0 -0.0082456964943031785 -0.049502780450811065 -0.002957596007618077 0 -0.002957596007618077 -0.016509383739583813 0 0 0 -0.016503041047598716 -0.036537772682761184 0.00054766167211902348 0 0.00054766167211902348 -0.012184691167347265 0 0 0 -0.012180615962527114 -0.0083612990218245344 -0.0041573673562732005 0 -0.0041573673562732005 -0.010257630787830513 0 0 0 -0.0046547324524137609 -0.0079207206011354669 0.021534921509675398 0 0.021534921509675398 -0.014589309121253446 0 0 0 -0.0056275074305972561 -0.0052727443773470939 -0.012803643814070842 0 -0.012803643814070842 -0.0049050913780422922 0 0 0 -0.0025444589388473049 -0.013933936823787164 -0.016442535181047213 0 -0.016442535181047213 0.0042702968871873928 0 0 0 -0.0024159099841499013 -0.0027178656604888167 0.0024713864635041664 0 0.0024713864635041664 -0.0063223729932837102 0 0 0 -0.0022600596634431316 -0.026896659033267795 -0.010787810514326018 0 -0.010787810514326018 -0.0052860909370333713 0 0 0 -0.0080456874925752871 -0.015257366963305541 -0.0081427099194379318 0 -0.0081427099194379318 -0.0039045184559214352 0 0 0 -0.0047904713548067301 -0.00043916459468787276 0.0032507733921396829 0 0.0032507733921396829 -0.0053739229224795005 0 0 0 -0.0014532718792918441 -0.0036824443120568448 0.0038546949508535865 0 0.0038546949508535865 -0.0045698771320434872 0 0 0 -0.0020630803610250823 -0.0045994507896208519 0.0033396308555394896 0 0.0033396308555394896 -0.0046077719838134579 0 0 0 -0.0023018056933585768 -0.014560214952118275 -0.0012136807073859224 0 -0.0012136807073859224 0.0013243232577759279 0 0 0 -0.0033089729235855625 -0.010522877373564932 -0.014751599320653279 0 -0.014751599320653279 0.016304534243150259 0 0 0 0.0014454142173963291 -0.010952425848265834 -0.0087439915161428294 0 -0.0087439915161428294 -0.0090618882665275402 0 0 0 -0.0050035785286983714 -0.014539520507116811 -0.0077045140784467222 0 -0.0077045140784467222 0.040969482895653345 0 0 0 0.0066074905971341344 -0.0043715726079505135 0.01829929991242274 0 0.01829929991242274 0.064837531354199562 0 0 0 0.015116489686562318 -0.0013307431343425602 -0.0012565024198248897 0 -0.0012565024198248897 -0.00023072674691371198 0 0 0 -0.00039036747031406804 -0.0070397068636127713 -0.0038947400922579273 0 -0.0038947400922579273 -0.0021350093143182036 0 0 0 -0.0022936790444827437 0.0029396895359861119 0.011621795006773405 0 0.011621795006773405 0.067271341240235927 0 0 0 0.01755275769405551 -0.0046194031638058901 0.013510235424132225 0 0.013510235424132225 0.052313460127806743 0 0 0 0.011923514241000219 -0.0092922933016870435 0.0044735928765632701 0 0.0044735928765632701 -0.0032742362014894742 0 0 0 -0.0031416323757941294 -0.012099709843261041 0.0042271489390629515 0 0.0042271489390629515 -0.0037363408172285326 0 0 0 -0.0039590126651223951 0.014214921942939718 0.020300099884616007 0 0.020300099884616007 0.014613978152421492 0 0 0 0.0072072250238404134 -0.0016762957272414836 0.024842684420860628 0 0.024842684420860628 0.0093196823019447983 0 0 0 0.0019108466436759119 -0.013422218822326241 -0.013673912834940592 0 -0.013673912834940592 0.016007133353050151 0 0 0 0.00064622863268097575 -0.00095774556917729847 -0.0049607232762885478 0 -0.0049607232762885478 -0.03373145978561648 0 0 0 -0.008672301338698396 -0.00068335835254235144 0.0025330709157501616 0 0.0025330709157501616 -0.030429322470572728 0 0 0 -0.0077781702057788116 -0.012894186086208561 0.0078516848897989926 0 0.0078516848897989926 0.034441324388678279 0 0 0 0.0053867845756174326 -0.010713753042495222 0.005926335397751864 0 0.005926335397751864 -0.0033537259114559959 0 0 0 -0.0035168697384875269 -0.0043268093940023178 -0.011624370629529257 0 -0.011624370629529257 0.037056134727110113 0 0 0 0.0081823313332769487 -0.053756362465869581 0.0021297054361393772 0 0.0021297054361393772 0.0004263208438259336 0 0 0 -0.013332510405510905 -0.088202535964046341 -0.0054545546217274962 0 -0.0054545546217274962 0.0006555192480065114 0 0 0 -0.021886754179009951 -0.0034966426702847039 -0.013281130550715989 0 -0.013281130550715989 0.0066205030025419387 0 0 0 0.00078096508306431389 0.060710200776668305 -0.027342793619326067 0 -0.027342793619326067 0.022578623451903201 0 0 0 0.020822206057142884 -0.0095946105084687566 -0.0087681258249208763 0 -0.0087681258249208763 0.00091081861701497457 0 0 0 -0.0021709479728634629 -0.0099926917405650274 -0.012258875811854753 0 -0.012258875811854753 0.0039301149664421331 0 0 0 -0.0015156441935307192 0.00069510280951184163 -0.0055656356441856625 0 -0.0055656356441856625 -0.0086770968371846172 0 0 0 -0.0019954985069181108 -0.002201218007256367 0.0053377616282701545 0 0.0053377616282701545 -0.0071064743761137805 0 0 0 -0.0023269230958422593 0.0011989582508438179 0.007090088358784552 0 0.007090088358784552 -0.0098726910323563288 0 0 0 -0.0021684331953781832 -0.0016846175314105241 -0.0039637028573693556 0 -0.0039637028573693556 -0.0055378942774806867 0 0 0 -0.001805627952222886 -0.027038920703221905 0.011550027756327519 0 0.011550027756327519 0.040804039855385055 0 0 0 0.0034412797880407492 -0.017232070091982771 -0.0097384165579069426 0 -0.0097384165579069426 0.0019769815868101448 0 0 0 -0.0038137721262931773 -0.011816903356157768 -0.0080471353848661498 0 -0.0080471353848661498 0.00029417656038908946 0 0 0 -0.0028806816989421866 -0.011912033528262526 -0.0075103844711637002 0 -0.0075103844711637002 -0.001424339413968724 0 0 0 -0.0033340932355578126 -0.0014675814906163764 -0.016176473534231448 0 -0.016176473534231448 0.0077559768431970655 0 0 0 0.0015720988381451861 -0.093436404383927779 0.010140975446699174 0 0.010140975446699174 0.0014613429033768499 0 0 0 -0.022993765370137725 -0.029565046611181325 0.0025916788266176528 0 0.0025916788266176528 0.0094593465160023593 0 0 0 -0.0050264250237947311 -0.02291506491546233 -0.0015213919355560705 0 -0.0015213919355560705 0.0087058998652571606 0 0 0 -0.0035522912625512715 -0.010588290994825528 0.0027165160501685937 0 0.0027165160501685937 -0.02076391092436547 0 0 0 -0.0078380504797977701 -0.072524343430235561 0.020113306384492657 0 0.020113306384492657 0.0010498830219078936 0 0 0 -0.017868615102081986 -0.046783354041606426 0.0053334130908579344 0 0.0053334130908579344 0.0023889210649090942 0 0 0 -0.011098608244174316 -0.048675836456965715 0.00060251411190145182 0 0.00060251411190145182 0.0022953997419352667 0 0 0 -0.011595109178757633 -0.081860270225461218 -0.0036658451879632709 0 -0.0036658451879632709 0.0052074736081739736 0 0 0 -0.019163199154321797 -0.076536507944597085 -0.014395418604647083 0 -0.014395418604647083 0.0062217871378206224 0 0 0 -0.017578680201694133 -0.015794849605761833 -0.007673626392789068 0 -0.007673626392789068 -0.0021266228896640801 0 0 0 -0.0044803681238564548 -0.053987000303242702 -0.0042835007388951352 0 -0.0042835007388951352 0.00091463884385492578 0 0 0 -0.013268090364846927 0.019672456557786488 0.035865342181404192 0 0.035865342181404192 0.011822606294956461 0 0 0 0.0078737657131857652 -0.019648700695273285 -0.006383999099661801 0 -0.006383999099661801 0.029217445996818726 0 0 0 0.0023921863253863552 0.0002903252556001731 0.0096797678845834886 0 0.0096797678845834886 0.0095324262575385444 0 0 0 0.0024556878782846783 -0.022815951364079601 0.021458982504011792 0 0.021458982504011792 -0.0041253986977061174 0 0 0 -0.0067353375154464712 -0.01273414498083103 -0.021136358150969592 0 -0.021136358150969592 0.0032829327453606227 0 0 0 -0.0023628030588676574 -0.010292176069461281 -0.013675461713425083 0 -0.013675461713425083 0.017050365971465052 0 0 0 0.0016895474755009464 -0.0036310601197145909 0.0023309821075218895 0 0.0023309821075218895 -0.02006703186830372 0 0 0 -0.0059245229970045776 -0.013456313777639756 -0.0090461222560019039 0 -0.0090461222560019039 -0.0040006229427537177 0 0 0 -0.0043642341800983891 -0.014645585036262662 -0.006347178434418458 0 -0.006347178434418458 -0.0088952758145759599 0 0 0 -0.0058852152127096564 -0.016288832212988168 0.0058174338102952999 0 0.0058174338102952999 -0.0053872007720501616 0 0 0 -0.0054190082462595825 -0.011481159508273185 -0.017617022526094428 0 -0.017617022526094428 0.0097878496604523885 0 0 0 -0.00042332746195521825 -0.028077682702108551 -0.01535786932605605 0 -0.01535786932605605 -0.0037412649601492737 0 0 0 -0.0079547369155644615 -0.040092668586803104 -0.0097421480625580082 0 -0.0097421480625580082 0.011802213433843245 0 0 0 -0.0070726137882399787 -0.0043625359212527866 -0.0013444418325763777 0 -0.0013444418325763777 -0.0087795778800154219 0 0 0 -0.0032855284503170517 -0.0031857549228908036 0.00016790553416572347 0 0.00016790553416572347 -0.0064262584300523468 0 0 0 -0.0024030033382357874 -0.0088195012463190975 0.0038506360202035629 0 0.0038506360202035629 -0.0043342638110682192 0 0 0 -0.0032884412643468283 -0.0090341697107144993 0.0045507406163890589 0 0.0045507406163890589 -0.0047165536969382225 0 0 0 -0.0034376808519131809 -0.033012552466194361 -0.013828993127182485 0 -0.013828993127182485 0.011051812476439327 0 0 0 -0.0054901849974387587 -0.004496589105116678 0.0084144899274631452 0 0.0084144899274631452 0.0084892882404121184 0 0 0 0.00099817478382386096 -0.00049535579750669507 -0.0023110395834012379 0 -0.0023110395834012379 -0.0083113740069433329 0 0 0 -0.0022016824511125075 -0.014624213330820183 -0.013932609738386644 0 -0.013932609738386644 -0.0048723902747785826 0 0 0 -0.00487415090139969 -0.0063139505107959138 0.010400641022281595 0 0.010400641022281595 0.027729083142933514 0 0 0 0.0053537831580343963 -0.016395355242748922 0.0021232579887162468 0 0.0021232579887162468 0.00073159286315155076 0 0 0 -0.0039159405948993474 -0.014967782287236994 0.0029444860414604666 0 0.0029444860414604666 0.0029290373705945436 0 0 0 -0.0030096862291606151 -0.049495528272172025 -0.0029638190730338003 0 -0.0029638190730338003 -0.016485976199097668 0 0 0 -0.016495376117817422 -0.036533246513776721 0.00055237896154114073 0 0.00055237896154114073 -0.012169869064006198 0 0 0 -0.012175778894445731 0.059197846957376177 0.01727804379964909 0 0.01727804379964909 0.017614196500167427 0 0 0 0.019203010864385861 -0.0093195312117265866 0.0038575472498116312 0 0.0038575472498116312 -2.9577836798095475e-05 0 0 0 -0.0023372772621311731 -0.024143962639818523 -0.0052902127594815548 0 -0.0052902127594815548 0.031714579143117608 0 0 0 0.0018926541258247748 -0.0076060731518745178 0.00033120222484103734 0 0.00033120222484103734 -0.029292906899361204 0 0 0 -0.0092247450128089409 -0.049531565972133908 0.0028778466201464931 0 0.0028778466201464931 0.00072824601503991213 0 0 0 -0.01220082998927351 -0.079663968739465324 -0.0061397107612509508 0 -0.0061397107612509508 0.00080019299534425659 0 0 0 -0.019715943936030274 -0.014818077143523921 -0.0072060831466988773 0 -0.0072060831466988773 -0.00728454484943801 0 0 0 -0.0055256554982404879 -0.043599643498148419 0.0059217164539758643 0 0.0059217164539758643 0.00031053287697710067 0 0 0 -0.010822277655292823 -0.054514993561649197 -0.018646454890614533 0 -0.018646454890614533 -0.0018084992762068472 0 0 0 -0.014080873209464009 -0.04569000955670649 0.0040451910151112856 0 0.0040451910151112856 -0.00040821955391856513 0 0 0 -0.011524557277656274 -0.023701614599040674 0.0041767054801961599 0 0.0041767054801961599 -0.0017201403780480757 0 0 0 -0.0063554387442721913 -0.017834152306839872 -0.0085227538421725028 0 -0.0085227538421725028 -0.0062177001480256868 0 0 0 -0.0060129631137163884 -0.035726089576298387 -0.015972199525825417 0 -0.015972199525825417 0.0037868452859033397 0 0 0 -0.0079848110725987582 -0.018145383502361834 -0.007294944132689038 0 -0.007294944132689038 0.00044684804817318735 0 0 0 -0.0044246338635471616 -0.0088111275457662952 0.027947359672653438 0 0.027947359672653438 0.0026158526179078656 0 0 0 -0.0015488187319645519 -0.016856289653552348 -0.013274768158747924 0 -0.013274768158747924 -0.0043664879388216615 0 0 0 -0.0053056943980934745 -0.0057966491612409504 -0.0015316121531328162 0 -0.0015316121531328162 -0.0059284627138545109 0 0 0 -0.0029312779687738653 -0.011792752917798749 0.0038246598545376132 0 0.0038246598545376132 -0.0043749403991553346 0 0 0 -0.0040419233292385212 -0.021185379550549534 -0.0080871458729501414 0 -0.0080871458729501414 -0.0096332022816534753 0 0 0 -0.0077046454580507531 -0.02056283843564774 0.0058255493622000141 0 0.0058255493622000141 -0.006109161891406964 0 0 0 -0.0066680000817636751 -0.022708184117957358 -0.0059168739956750177 0 -0.0059168739956750177 0.0082066102597548179 0 0 0 -0.0036253934645506421 -0.024191558286367085 -0.011135834833355646 0 -0.011135834833355646 0.0097564426941537941 0 0 0 -0.0036087788980533261 -0.027223882655671383 0.03022402874451198 0 0.03022402874451198 0.0088873449986994757 0 0 0 -0.0045841344142429907 0.0015105943121577203 0.04149146307879735 0 0.04149146307879735 0.023551457880375271 0 0 0 0.00626551304813322 0.035714690721932729 -0.00048690834793314874 0 -0.00048690834793314874 0.022702006333163383 0 0 0 0.014604174263774021 -0.025438021288163373 -0.0030129137213436886 0 -0.0030129137213436886 0.026726678502026514 0 0 0 0.00032216430346578007 -0.002056229091635118 0.0022240163504729333 0 0.0022240163504729333 -0.0067478164553680551 0 0 0 -0.0022010113867507938 -0.017133653383605438 -0.010062737883828075 0 -0.010062737883828075 0.00079123167547739959 0 0 0 -0.0040856054270320269 -0.032661557413443287 0.028121756526871711 0 0.028121756526871711 1.7027538844027745e-05 0 0 0 -0.00816113246864969 -0.009652793315443553 -0.0030611994887722593 0 -0.0030611994887722593 0.014963298211357334 0 0 0 0.0013276262239784731 -0.010325452157984367 -0.0065747591876435252 0 -0.0065747591876435252 -0.012554332686621622 0 0 0 -0.0057199462111514957 -0.013998303116529262 0.003930081108406959 0 0.003930081108406959 -0.0027363889748500334 0 0 0 -0.0041836730228448256 -0.038893339007097183 0.002576456857910886 0 0.002576456857910886 0.024803673033044427 0 0 0 -0.003522416493513203 -0.048219373599877602 0.0013115189883782989 0 0.0013115189883782989 -0.0010424425266887284 0 0 0 -0.012315454031641589 -0.073606277189051827 -0.0028048269601415317 0 -0.0028048269601415317 -0.0021010455877738324 0 0 0 -0.01892683069420642 -0.01041508806032513 -0.0083652252989375973 0 -0.0083652252989375973 0.0020117323354284511 0 0 0 -0.002100838931224161 -0.026251582727559203 0.0037292934188126094 0 0.0037292934188126094 -0.0046817666386431769 0 0 0 -0.0077333373415505967 -0.027452036244886124 -0.006415465370155353 0 -0.006415465370155353 -0.0093025105604113943 0 0 0 -0.0091886367013243771 -0.10347261447500235 -0.0005540460316399709 0 -0.0005540460316399709 0.0027315989188293477 0 0 0 -0.025185253889043316 -0.057945394785825118 0.00039205052581681166 0 0.00039205052581681166 0.00081133398801677692 0 0 0 -0.014283515199452125 0.014559451210340246 0.010110065840834709 0 0.010110065840834709 0.056549000249858608 0 0 0 0.01777711286504971 0.046294330779742099 -0.001411578220724144 0 -0.001411578220724144 0.1448220953303638 0 0 0 0.047779106527526469 -0.014399429034876128 -0.017695759849164355 0 -0.017695759849164355 0.011161283028509619 0 0 0 -0.00080953650159160812 -0.023215695878950476 -0.015138410750101972 0 -0.015138410750101972 0.0091051763689131149 0 0 0 -0.0035276298775093196 -0.0078336803016735377 -0.015774148538818866 0 -0.015774148538818866 0.027169435504498796 0 0 0 0.0048339388007063114 -0.0018661014836104939 -0.00044462264836442333 0 -0.00044462264836442333 -0.029086065328069899 0 0 0 -0.0077380417029201121 -0.0040139642627622062 -0.00070152676887987584 0 -0.00070152676887987584 -0.0088934830753624756 0 0 0 -0.0032268618345311704 -0.03457146550968844 -0.0004980199510847827 0 -0.0004980199510847827 0.0060285409056438921 0 0 0 -0.0071357311510111404 0.001114130912756861 -0.0027180431425280135 0 -0.0027180431425280135 -0.029927256944942249 0 0 0 -0.007203281508046333 -0.090579961560357358 0.0076074042116271723 0 0.0076074042116271723 0.00056354214315230272 0 0 0 -0.022504104854301318 -0.018707511459274961 0.021478597025790691 0 0.021478597025790691 -0.00618703605087223 0 0 0 -0.0062236368775370199 -0.011715170709755141 -0.020118064553613757 0 -0.020118064553613757 -7.2786720011208672e-06 0 0 0 -0.0029306123454388988 -0.0086780574800258605 0.0039112720996397378 0 0.0039112720996397378 0.0073235347218315802 0 0 0 -0.00033863068954857007 -0.02866168650529638 -0.0089867793313008551 0 -0.0089867793313008551 0.0084738714103234358 0 0 0 -0.0050469537737432429 -0.00016836575020784741 0.0057543452878408658 0 0.0057543452878408658 -0.0016532220541793236 0 0 0 -0.00045539695109679361 0.0022349042370583896 0.0077971470501650396 0 0.0077971470501650396 0.0023939668422837124 0 0 0 0.0011572177698355238 -0.037516955322604136 -0.014018867521173563 0 -0.014018867521173563 -0.0027591660524978502 0 0 0 -0.010069030343775504 -0.021924973670526621 -0.016205659176808496 0 -0.016205659176808496 0.0025565297727360159 0 0 0 -0.0048421109744476443 -0.06087184144974974 -0.011000423280494413 0 -0.011000423280494413 -0.0041662071555887692 0 0 0 -0.016259512151334636 -0.016782128872676605 0.031564591437816536 0 0.031564591437816536 0.0009004058266404158 0 0 0 -0.0039704307615089363 -0.018402598328129606 0.029537239272426352 0 0.029537239272426352 0.0007015456127788533 0 0 0 -0.0044252631788377142 -0.019253085072927334 0.030667793346019101 0 0.030667793346019101 0.00014947921413055454 0 0 0 -0.0047759014646991949 -0.018079817245438667 -0.019122090037216266 0 -0.019122090037216266 0.0026035438932275889 0 0 0 -0.0038690683380527835 -0.021184414772392038 -0.016711338379031437 0 -0.016711338379031437 0.0014485519432732193 0 0 0 -0.0049339657072796769 0.037619558065672055 0.020645450278618312 0 0.020645450278618312 0.029502378977207283 0 0 0 0.01678048426071984 -0.0053519587719223468 -0.0013924813786745688 0 -0.0013924813786745688 -0.001788560098642005 0 0 0 -0.0017851297176410884 -0.0097840433744137614 0.0040691608655806831 0 0.0040691608655806831 -0.0032628219325992482 0 0 0 -0.0032617163267532521 -0.0078776825047172927 0.0044820826626092861 0 0.0044820826626092861 0.0010150203058752489 0 0 0 -0.0017156655497105127 0.0013964465005228549 -0.0075235711003332414 0 -0.0075235711003332414 0.040611988360252371 0 0 0 0.010502108715193817 -0.046351463522009285 -0.016402662241546871 0 -0.016402662241546871 -0.00234669862888532 0 0 0 -0.01217454053772365 -0.0050087582595821434 0.0021350118974574092 0 0.0021350118974574092 -0.0046211369670875677 0 0 0 -0.0024074738066674276 -0.074787737185372682 -0.0041062470657830981 0 -0.0041062470657830981 -0.0024743806233457014 0 0 0 -0.019315529452179594 -0.048254985821720865 0.0017958972415188148 0 0.0017958972415188148 -0.00096507701459443672 0 0 0 -0.012305015709078829 -0.052449709567210012 -0.0030501101952864623 0 -0.0030501101952864623 0.00072962602150383749 0 0 0 -0.012930020886426502 -0.0064558177771507717 0.0039710443793513463 0 0.0039710443793513463 -0.0043223683088735535 0 0 0 -0.0026945465215060809 -0.014059829960604682 -0.0040795908862558683 0 -0.0040795908862558683 0.0070424243872136832 0 0 0 -0.0017543513933477375 -0.010429303215963619 0.0076751220085573071 0 0.0076751220085573071 0.018987953117572176 0 0 0 0.0021396624754021383 0.00098454791063083691 0.027912212115429602 0 0.027912212115429602 0.0051680923555077751 0 0 0 0.0015381600665346079 -0.00099612875772866409 0.001934596003456285 0 0.001934596003456285 -0.0067814125651311803 0 0 0 -0.0019443853307149616 -0.014732574519354502 0.020601772371309446 0 0.020601772371309446 -0.013122250042536532 0 0 0 -0.006963706140472592 -0.010399482980240959 -0.020203403611257803 0 -0.020203403611257803 -0.0061024460359886401 0 0 0 -0.0041254822540575109 -0.0063775033741043522 0.0041335704867294888 0 0.0041335704867294888 -0.0042760953909975596 0 0 0 -0.0026633996912754782 -0.017954506872953677 0.0035576972165854044 0 0.0035576972165854044 0.025276134985601974 0 0 0 0.001830407028162079 -0.003254427565961171 0.018685721857450904 0 0.018685721857450904 -0.0094538167069257995 0 0 0 -0.0031770610682217981 -0.0054528327854629355 0.013265676710819241 0 0.013265676710819241 -0.015698228524375857 0 0 0 -0.0052877653274598924 -0.0041251645566814377 -0.0095467659420181844 0 -0.0095467659420181844 -0.011167198428900127 0 0 0 -0.0038230907463955299 -0.0031959792734725379 -0.014630842735886995 0 -0.014630842735886995 -0.0074655929732556636 0 0 0 -0.0026653930616821753 -0.056898206242681035 -0.0047238625501523496 0 -0.0047238625501523496 0.01223603494002945 0 0 0 -0.011165542825662914 -0.038279743056370941 -0.0081825042696135886 0 -0.0081825042696135886 0.0042607966365971472 0 0 0 -0.0085047366049434692 -0.045910818815784044 -0.0086603018895701905 0 -0.0086603018895701905 0.004856844907864144 0 0 0 -0.01026349347698001 -0.075562223702290376 0.020743418769469474 0 0.020743418769469474 0.011432649651591964 0 0 0 -0.016032393512674714 -0.058775956717385419 0.019639882272593542 0 0.019639882272593542 0.010106369303915397 0 0 0 -0.01216739685336754 -0.012819400973262327 0.0036302788792958677 0 0.0036302788792958677 -0.0045862296437228414 0 0 0 -0.0043514076542462915 0.064625389092414109 0.01807605334768668 0 0.01807605334768668 0.014247852216284773 0 0 0 0.019718310327174693 -0.039302418773098022 -0.0069892714000865446 0 -0.0069892714000865446 -0.0097547454316759437 0 0 0 -0.012264291051193491 -0.0319256037149072 0.0032658823086661455 0 0.0032658823086661455 -0.0056991258662708495 0 0 0 -0.0094061823952945097 -0.022299865825981507 -0.0056915402352645771 0 -0.0056915402352645771 0.01945401944791661 0 0 0 -0.00071146159451621754 -0.022068768680409721 0.0049950405245471879 0 0.0049950405245471879 -0.0037459087155247172 0 0 0 -0.0064536693489836089 -0.020024649860108146 -0.0086831125405091442 0 -0.0086831125405091442 -0.01069501722087246 0 0 0 -0.0076799167702451526 -0.062757220468481367 -0.014143843107119814 0 -0.014143843107119814 0.00030742784229936815 0 0 0 -0.015612448156545489 -0.063011718527394386 -0.013780307017888002 0 -0.013780307017888002 -0.00087517255145694306 0 0 0 -0.015971722769712829 -0.0077744502267309556 0.026593930060426207 0 0.026593930060426207 0.0023537166354814509 0 0 0 -0.0013551833978124872 -0.007450127230738679 -0.011286324005796572 0 -0.011286324005796572 -0.00059028420264550796 0 0 0 -0.002010102858346019 -0.0001772738488850109 -0.0030735484921656231 0 -0.0030735484921656231 -0.02871485455893329 0 0 0 -0.0072230321019545896 0.00015432331205292305 0.0023843960571042211 0 0.0023843960571042211 -0.030384667799055909 0 0 0 -0.0075575861217507256 -0.021988118477933308 0.0035044350561046558 0 0.0035044350561046558 0.00066465015339004332 0 0 0 -0.0053308670811358164 0.000689473449504166 -0.0024026091927541182 0 -0.0024026091927541182 0.033524926701458235 0 0 0 0.0085536000377406246 0.0054040068370489469 -0.0024438827013374687 0 -0.0024438827013374687 0.057121695333091249 0 0 0 0.015631425542535049 -0.012920222210364048 -0.0099053681220331868 0 -0.0099053681220331868 -0.012493858050203439 0 0 0 -0.0063535200651418716 -0.04434727269887366 -0.0021947730661708714 0 -0.0021947730661708714 0.0046705456122950184 0 0 0 -0.0099191817716446223 -0.00047018987495428544 0.00059263127686701167 0 0.00059263127686701167 -0.031251649864828313 0 0 0 -0.0079304599349456217 -0.062583630935121468 -0.019633648337488561 0 -0.019633648337488561 0.0033239440001285869 0 0 0 -0.014814921733748217 -0.0091531751145730433 0.0040008079301816629 0 0.0040008079301816629 0.0052289315922525378 0 0 0 -0.00098106088058012592 -0.02638371042303346 -0.012341227151058121 0 -0.012341227151058121 0.012865209726823645 0 0 0 -0.0033796251740524363 -0.023876850063378002 -0.0099419554550494171 0 -0.0099419554550494171 0.011902105745711877 0 0 0 -0.0029936860794165243 -0.023229537382105883 0.0055394830514555122 0 0.0055394830514555122 -0.00064303798354547277 0 0 0 -0.0059681438414128296 -0.036642962558433703 -0.0057002029507392943 0 -0.0057002029507392943 0.0070458643954166011 0 0 0 -0.007399274540754272 -0.026903794725281219 0.0039861309839920277 0 0.0039861309839920277 -0.00041098065053540682 0 0 0 -0.0068286938439541577 -0.016902747395273469 -0.0096502051905302411 0 -0.0096502051905302411 -0.0099558547839085458 0 0 0 -0.0067146505447955047 -0.046782517065878493 -0.0019341645085721448 0 -0.0019341645085721448 0.0053800816237207782 0 0 0 -0.010350608860539443 -0.080789970854984544 0.0035355887733243829 0 0.0035355887733243829 0.018449142073240971 0 0 0 -0.015585207195435907 -0.039803020134764097 -0.0076253903312612104 0 -0.0076253903312612104 -0.0087827450888215385 0 0 0 -0.012146441305896406 -0.031310531889094328 0.0038117351847622395 0 0.0038117351847622395 -0.0064176210190365363 0 0 0 -0.0094320382270327158 -0.028410444969122397 0.0059517534470697221 0 0.0059517534470697221 -0.0016551057920508928 0 0 0 -0.0075163876902933193 -0.031213237849614956 -0.013384207752262468 0 -0.013384207752262468 -0.0077916079375741701 0 0 0 -0.0097512114467972755 -0.0088244650524702713 -0.0035936202997368201 0 -0.0035936202997368201 -0.0097723662541179587 0 0 0 -0.0046492078266470588 0.0017872908093979623 -0.017277485234824627 0 -0.017277485234824627 0.023362767993100955 0 0 0 0.0062875147006247328 0.0010950518011312936 0.0034839226334197268 0 0.0034839226334197268 -0.0062246730721981476 0 0 0 -0.0012824053177667128 -0.0090670674190922451 0.017055411040291735 0 0.017055411040291735 -0.0040341876542218102 0 0 0 -0.0032753137683285694 -0.0086799140212814319 -0.020601001527720209 0 -0.020601001527720209 0.00087605132845802736 0 0 0 -0.0019509656732058511 -0.027222113881928425 0.0054033914109540481 0 0.0054033914109540481 -0.0027561019536992489 0 0 0 -0.0074945539589069141 -0.027375826161492416 -0.010964496520716538 0 -0.010964496520716538 -0.0098815014170191614 0 0 0 -0.0093143318946278964 -0.0020577750357872885 0.004690733110302242 0 0.004690733110302242 -0.0030634854222368925 0 0 0 -0.0012803151145060459 -0.011450754618250972 -0.01326141509489067 0 -0.01326141509489067 0.017406847215182764 0 0 0 0.0014890231492329237 -0.059738844411642789 0.0092543197134652647 0 0.0092543197134652647 -0.00045919996448784417 0 0 0 -0.01504951109403263 0.0055291559284692537 -0.0095371254844221487 0 -0.0095371254844221487 0.020482202261547067 0 0 0 0.0065028395475040524 -0.025619979741563548 -0.017397725734780212 0 -0.017397725734780212 0.0031836063897178191 0 0 0 -0.005609093337961446 -0.021934194007740417 -0.0039901709846167331 0 -0.0039901709846167331 0.028462546877202864 0 0 0 0.0016320882173656119 -0.062553358219817223 -0.0088386145711862475 0 -0.0088386145711862475 -0.0017314447688030665 0 0 0 -0.016071200747155078 -0.042636056849750512 0.0033532382813016249 0 0.0033532382813016249 -0.00063585467471060156 0 0 0 -0.010817977881115281 0.0081962422774677912 0.0035516377811168585 0 0.0035516377811168585 -0.0013315245132222778 0 0 0 0.0017161794410613732 -0.0045673684867696997 0.0037053880764496318 0 0.0037053880764496318 -0.004765088288681346 0 0 0 -0.0023331141938627616 -0.02288897019654073 -0.011100814883611095 0 -0.011100814883611095 0.0073115252700904909 0 0 0 -0.0038943612316125614 -0.063598836408296722 -0.0099671193737093482 0 -0.0099671193737093482 -0.00076660219856380333 0 0 0 -0.016091359651715122 -0.043733053449872619 0.0042519418352286124 0 0.0042519418352286124 -0.00022074223333567317 0 0 0 -0.010988448920802071 -0.010840740490823146 0.0057460240268762007 0 0.0057460240268762007 0.028507693841754729 0 0 0 0.0044167383377328954 -0.015395230575899754 -0.018223802677366341 0 -0.018223802677366341 -0.00069818064407556335 0 0 0 -0.0040233528049939959 -0.016602730999500048 0.02963444815121799 0 0.02963444815121799 -0.0022622511934029532 0 0 0 -0.0047162455482254728 -0.04067919936393339 0.0038122588704901789 0 0.0038122588704901789 0.0043018164830124703 0 0 0 -0.0090943457202302472 -0.033500408465284057 0.00030125253549417863 0 0.00030125253549417863 0.0047970657231071493 0 0 0 -0.007175835685544237 -0.0086296066583214977 -0.0039449364625383336 0 -0.0039449364625383336 0.0093994206202595125 0 0 0 0.00019245349048450412 -0.011395609328755997 -0.0038241315172975153 0 -0.0038241315172975153 0.013210754128581293 0 0 0 0.00045378619995632479 -0.015648553232543369 -0.0062575117142177131 0 -0.0062575117142177131 -0.010415951936377111 0 0 0 -0.0065161262922301191 -0.014011132916672945 -0.0042389977610313998 0 -0.0042389977610313998 -0.0089560467336457575 0 0 0 -0.0057417949125796756 -0.018946775281472549 0.0037540220435920701 0 0.0037540220435920701 -0.0049669571940550925 0 0 0 -0.005978433118881913 -0.018596574480519337 0.0051868821065653593 0 0.0051868821065653593 -0.0047569477030785338 0 0 0 -0.0058383805458994669 -0.014308036480012248 -0.0046500289261818678 0 -0.0046500289261818678 -0.0026223325768483519 0 0 0 -0.0042325922642151292 -0.015760384444647776 0.0022362316721195423 0 0.0022362316721195423 0.031263564936909967 0 0 0 0.0038757951230655413 0.0037917143743962474 0.0051502756409044989 0 0.0051502756409044989 -0.0018417529482043227 0 0 0 0.00048749035654798139 -0.0086699169031505541 0.029804073017455201 0 0.029804073017455201 0.0010722505702003282 0 0 0 -0.0018994165832375565 -0.023287413008420299 -0.016893227088645338 0 -0.016893227088645338 -0.00035891177584845835 0 0 0 -0.0059115811960672171 -0.0037533328123650067 0.032243696276731293 0 0.032243696276731293 0.0028494783618913111 0 0 0 -0.00022596361261839615 0.0059849178515691982 -0.0053166855930935619 0 -0.0053166855930935619 -0.0033352593247368278 0 0 0 0.00066241463170809735 0.0096220821269939142 -0.00042739488534567979 0 -0.00042739488534567979 0.0024777684314599771 0 0 0 0.0030249626396134741 -0.030439387066429902 0.029425107065467526 0 0.029425107065467526 0.0021655498846477883 0 0 0 -0.0070684592954455838 -0.018100509489067607 0.033357574874928742 0 0.033357574874928742 0.0026957474062623277 0 0 0 -0.0038511905207012642 -0.044648681009010316 -0.0064787988203914388 0 -0.0064787988203914388 -0.0053690995811034072 0 0 0 -0.012504445147528428 -0.034792983256274258 0.0026977065648881708 0 0.0026977065648881708 -0.0036797302788437129 0 0 0 -0.0096181783837794889 -0.010473896863315291 -0.014166293406898081 0 -0.014166293406898081 0.0094270945089458547 0 0 0 -0.00026170058859231737 0.0056000694875710244 -0.0012914840805062211 0 -0.0012914840805062211 0.031365667371969774 0 0 0 0.0092414342148852135 0.0074990065233643682 -0.0021581068145489768 0 -0.0021581068145489768 0.057517447818073997 0 0 0 0.016254113585359595 -0.015584025830018205 0.0031875656554628158 0 0.0031875656554628158 0.018344034600447198 0 0 0 0.00069000219260725165 0.0066722994303942927 0.0076404088820795505 0 0.0076404088820795505 0.00037785195976489799 0 0 0 0.0017625378475397968 -0.0054782876260016933 -0.0029270419041067808 0 -0.0029270419041067808 -0.020531457953414711 0 0 0 -0.0065024363948541219 -0.010751878310605451 -0.0029000506537060905 0 -0.0029000506537060905 -0.021865676057428285 0 0 0 -0.0081543885920084269 -0.014855572510869497 -0.0073514142578974609 0 -0.0073514142578974609 -0.0024199877142670467 0 0 0 -0.0043188900562841498 -0.016793842153156435 0.012774599524738361 0 0.012774599524738361 -0.0063619414947737041 0 0 0 -0.0057889459119827014 -0.0087189711901342337 -0.020629365717249604 0 -0.020629365717249604 0.00047834754709333294 0 0 0 -0.0020601559107602807 -0.0027951821292435952 0.0060373691878226055 0 0.0060373691878226055 -0.016912963411796711 0 0 0 -0.0049270363852600418 -0.0030204734642369779 -0.010009155983029566 0 -0.010009155983029566 -0.012142799537006255 0 0 0 -0.0037908182503108012 -0.010350086772784151 0.02727543726292736 0 0.02727543726292736 -0.0079052586038756978 0 0 0 -0.0045638363441647956 -0.011608834272524765 -0.014619385615762814 0 -0.014619385615762814 -0.0081269926739762077 0 0 0 -0.0049339567366253057 -0.0028636339070073624 0.0034159610475788271 0 0.0034159610475788271 -0.0055172990385834592 0 0 0 -0.0020952332363977045 -0.00020546714005415662 0.0047856370632468823 0 0.0047856370632468823 -0.0035236805637216262 0 0 0 -0.0009322869259439457 -0.011113160484183648 0.02898853792912881 0 0.02898853792912881 0.0019019394141741586 0 0 0 -0.0023028052675024835 -0.013584941590882527 -0.015098630679539315 0 -0.015098630679539315 -5.3828577223580254e-05 0 0 0 -0.003409692542026499 -0.032475014592978899 -0.0080229419168283758 0 -0.0080229419168283758 -0.0090448847794990135 0 0 0 -0.010379974843119479 -0.027898019493955033 0.0043770503505027565 0 0.0043770503505027565 -0.0057252491175788078 0 0 0 -0.0084058171528834623 0.0078556747165982044 0.029356533820988351 0 0.029356533820988351 0.010407911356691502 0 0 0 0.0045658965183223987 -0.053322936169848068 -0.0048970148207749583 0 -0.0048970148207749583 -0.008836012542018757 0 0 0 -0.015539737177966705 -0.039158380010803594 0.0014971087525917739 0 0.0014971087525917739 -0.0057900558818766226 0 0 0 -0.011237108973170051 -0.025731097934851954 0.0098571392465377494 0 0.0098571392465377494 -0.0045741274184920577 0 0 0 -0.0075763063383362805 -0.0028030801240324088 -0.012678674665684841 0 -0.012678674665684841 0.023454574384721427 0 0 0 0.0051628735651722546 -0.014799258994235329 -0.010672815604786778 0 -0.010672815604786778 0.035379205507533255 0 0 0 0.0051449866283244799 -0.033106928701706603 -0.0074058252862006096 0 -0.0074058252862006096 0.033372143833664547 0 0 0 6.6303782989482474e-05 -0.024507635512468595 -0.014341245517799936 0 -0.014341245517799936 0.0050229430871089331 0 0 0 -0.0048711731063399433 -0.0069382957855553054 -0.0097860458699051463 0 -0.0097860458699051463 0.0026481271724953237 0 0 0 -0.0010725421532650006 -0.027907316339282173 0.032310073260994665 0 0.032310073260994665 0.0089444576484352112 0 0 0 -0.0047407146727115879 -0.055144425821228971 0.015951998957961483 0 0.015951998957961483 0.012286715921977276 0 0 0 -0.010714427474812938 -0.036467183545499271 -0.0066062568706578215 0 -0.0066062568706578215 0.0052585672131492678 0 0 0 -0.0078021540830874869 0.0050627632336486816 -0.021714531254655167 0 -0.021714531254655167 0.017413429780234635 0 0 0 0.005619048253470843 -0.0083476329408922537 0.001938719393502375 0 0.001938719393502375 0.011169940605776224 0 0 0 0.00070557691622099433 -0.0089136741326240887 -0.0081790104825294752 0 -0.0081790104825294752 0.019468627630517155 0 0 0 0.0026387383744732873 -0.019251412844383406 -0.0066977426697171043 0 -0.0066977426697171043 0.022734788042885617 0 0 0 0.00087084379962555289 -0.020048328620807875 -0.0063231053873041513 0 -0.0063231053873041513 0.020494514815727879 0 0 0 0.00011154654872999603 -0.0042994016459388697 0.013044304622259847 0 0.013044304622259847 0.042096295018506633 0 0 0 0.0094492233431419416 0.0002568536328774601 -0.010376741780480717 0 -0.010376741780480717 0.022058681368821415 0 0 0 0.0055788837504247429 -0.0062311905928094102 0.025701325861005264 0 0.025701325861005264 0.004686463005261654 0 0 0 -0.00038618189688710558 -0.011874927363445642 -0.0090068456206136016 0 -0.0090068456206136016 -0.0047025975485457394 0 0 0 -0.0041443812279978731 -0.012198210972070907 0.0086518482858601482 0 0.0086518482858601482 0.024997436094574138 0 0 0 0.0031998062806258068 -0.014698959466859302 -0.0045609668461420172 0 -0.0045609668461420172 0.0038701995796047786 0 0 0 -0.0027071899718136318 -0.012097302892478609 -0.0054118154729632384 0 -0.0054118154729632384 -0.016683898143511511 0 0 0 -0.0071953002589974918 -0.003109849230269187 0.011419192083822385 0 0.011419192083822385 0.01563945081892015 0 0 0 0.0031324003971627372 -0.0052448119604402901 -0.0018528998404826133 0 -0.0018528998404826133 -0.0098360553395147633 0 0 0 -0.0037702168249887629 -0.05829712686778124 -0.0043984171871588673 0 -0.0043984171871588673 0.00094322392529333499 0 0 0 -0.014338475735621997 -0.016668702140604973 -0.0063030232692806772 0 -0.0063030232692806772 -0.010254559928171212 0 0 0 -0.0067308155171940439 0.002500982405716693 0.0054517554789333322 0 0.0054517554789333322 -0.0024148358840590401 0 0 0 2.1536630414415499e-05 -0.011423553830807804 0.0074864917138815048 0 0.0074864917138815048 0.037252949145867513 0 0 0 0.0064573488287649264 -0.10149269143819217 0.0095104038262374506 0 0.0095104038262374506 0.0015242144431160121 0 0 0 -0.02499211924876904 -0.0056903536861788988 0.003500668967059267 0 0.003500668967059267 -0.0048653273974843267 0 0 0 -0.0026389202709158075 0.0017655575705475303 -0.00041612829815647866 0 -0.00041612829815647866 -0.0060483461946941111 0 0 0 -0.0010706971560366461 -0.019305976757013666 -0.010387111247597919 0 -0.010387111247597919 0.004340908105278013 0 0 0 -0.0037412671629339124 -0.030371901190650974 -0.0133240736021637 0 -0.0133240736021637 0.00090510752894590318 0 0 0 -0.0073666984154262538 -0.0086025662609947474 -0.0067261717695537588 0 -0.0067261717695537588 -0.0099661115733519802 0 0 0 -0.0046421694585866823 -0.0026905496162033249 0.0025848693361267155 0 0.0025848693361267155 -0.0054252061366387369 0 0 0 -0.0020289389382105154 -0.00028591071042413652 -0.0036186872884082302 0 -0.0036186872884082302 -0.0043962909729483475 0 0 0 -0.0011705504208431236 -0.019765525390043351 -0.011363787212442751 0 -0.011363787212442751 0.0079033393766063109 0 0 0 -0.0029655465033592843 -0.010050876402992931 0.00020685724193195143 0 0.00020685724193195143 0.0036204796777075665 0 0 0 -0.0016075991813213342 -0.040339765929944739 -0.019107938043525043 0 -0.019107938043525043 -0.0039437822563159475 0 0 0 -0.011070887046565177 0.0066967269602300206 0.01340467529131284 0 0.01340467529131284 0.043664768488208716 0 0 0 0.012590373862109677 -0.01703305238063673 -0.0060905701794515821 0 -0.0060905701794515821 -0.0026539993483201407 0 0 0 -0.0049217629322392195 -0.00077634440127050076 0.0032691107060070896 0 0.0032691107060070896 -0.0056190765518628304 0 0 0 -0.0015988552382833333 0.0013202853124928277 0.0038543303018163284 0 0.0038543303018163284 -0.0056948275014913202 0 0 0 -0.0010936355472496231 -0.017826925024204687 0.013691389538574572 0 0.013691389538574572 0.00077845088333905466 0 0 0 -0.0042621185352165192 -0.011581317022370419 -0.017529448235962405 0 -0.017529448235962405 0.012251020708705429 0 0 0 0.00016742592158358605 -0.00023197651279783897 0.007443385495845928 0 0.007443385495845928 0.0033503756208540826 0 0 0 0.00077959977701405961 -0.0038686748178039833 0.0066203622366302079 0 0.0066203622366302079 0.0027782582104463882 0 0 0 -0.00027260415183939703 -0.0011267560721340344 0.004098412701477685 0 0.004098412701477685 -0.0046679773326380606 0 0 0 -0.0014486833511930235 -0.036403130378230612 0.0046506576118330641 0 0.0046506576118330641 -0.00068787505053116661 0 0 0 -0.0092727513571904483 -0.017723969641880839 0.00095037399068155677 0 0.00095037399068155677 0.0067917914533378032 0 0 0 -0.0027330445471357503 -0.0089422003752034074 -0.0012772090671738946 0 -0.0012772090671738946 0.00831955372761152 0 0 0 -0.00015566166189796837 -0.04029185325826809 0.005118045109235257 0 0.005118045109235257 -0.0015120054666500522 0 0 0 -0.01045096468122954 0.034817864162288333 0.043385363810422406 0 0.043385363810422406 0.031052311812007516 0 0 0 0.016467543993573981 -0.011782527000128162 0.024685093062315214 0 0.024685093062315214 -0.0051513204523301326 0 0 0 -0.0042334618631147958 -0.0114318658343594 -0.019292029279045775 0 -0.019292029279045775 -0.0041393906266335989 0 0 0 -0.0038928141152481111 -0.010785031381799662 0.0032505709701203503 0 0.0032505709701203503 0.0037596507313654003 0 0 0 -0.0017563451626085662 -0.0044102929369553515 0.002845615651576241 0 0.002845615651576241 -0.003714495195150107 0 0 0 -0.0020311970330263644 0.014660268128612389 -0.0027100865834651777 0 -0.0027100865834651777 0.0061776227811453643 0 0 0 0.0052094727274394417 -0.013863110817069341 -0.0070021164263798404 0 -0.0070021164263798404 -0.0035272949012550292 0 0 0 -0.0043476014295810994 -0.015560324931403247 -0.0086756294812091739 0 -0.0086756294812091739 -0.0026132493608735929 0 0 0 -0.0045433935730692099 -0.0047429041578336273 0.0049420273856835475 0 0.0049420273856835475 -0.00083742858585677052 0 0 0 -0.0013950831859226003 -0.042923250122485213 -0.0079875133172618573 0 -0.0079875133172618573 0.00090369372116705371 0 0 0 -0.010504889100329512 -0.036732990988693037 -0.012103293705978319 0 -0.012103293705978319 0.0029974152183745995 0 0 0 -0.0084338939425795678 -0.0039068256382953359 0.0012662424631973252 0 0.0012662424631973252 -0.0013056248831366391 0 0 0 -0.001303112630357994 -0.054790538522286658 0.026460442974622134 0 0.026460442974622134 0.0045282684344318813 0 0 0 -0.012565567521963694 -0.069153673083142742 0.017905127796207426 0 0.017905127796207426 0.00058820269154491456 0 0 0 -0.017141367597899526 -0.0061726920979890132 0.0053312896635618057 0 0.0053312896635618057 0.0028916652097740192 0 0 0 -0.00082025672205376932 -0.0067064570320228556 -0.010966749430634276 0 -0.010966749430634276 0.0060280411637881892 0 0 0 -0.00016960396705870129 0.0068741307251436248 -0.011884378946935011 0 -0.011884378946935011 0.00091465856172155691 0 0 0 0.0019471973217163041 -0.013986176214380891 -0.00091729604879683957 0 -0.00091729604879683957 -0.014641665529182613 0 0 0 -0.0071569604358908967 0.021817764467999448 0.023353071087304913 0 0.023353071087304913 0.048289838160272103 0 0 0 0.017526900657067884 -0.0050280445980248646 -0.0049004745614382493 0 -0.0049004745614382493 -0.0080557104362396909 0 0 0 -0.003270938758566135 -0.012097302550890306 -0.010823798493208331 0 -0.010823798493208331 0.013940997010229918 0 0 0 0.00046092361483488289 0.034869574732890596 0.017497080579270186 0 0.017497080579270186 0.0096215525431889715 0 0 0 0.011122781819019933 -0.010564073290878176 0.0026665866112742997 0 0.0026665866112742997 0.0031278127297187722 0 0 0 -0.0018590651402898527 -0.011956678983318758 0.027152732942613111 0 0.027152732942613111 -0.0066474741095809975 0 0 0 -0.0046510382732248834 -0.010420089537250543 -0.016812000345664546 0 -0.016812000345664546 -0.002059872255720463 0 0 0 -0.0031199904482427931 -0.010236930705850166 0.0033542247645969858 0 0.0033542247645969858 -0.0019947228565957691 0 0 0 -0.0030579133906114843 -0.024962462164271355 -0.0071429200213452837 0 -0.0071429200213452837 0.028675846690311244 0 0 0 0.00092834613150996961 -0.0088326939297995732 0.022450244596321944 0 0.022450244596321944 0.017981025539750783 0 0 0 0.0022870829024878025 -0.01207104740539458 -0.0086823545476190089 0 -0.0086823545476190089 0.00075324567463097569 0 0 0 -0.002829450432690811 -0.065591254892812395 0.0017121174849486903 0 0.0017121174849486903 0.00070028518848852528 0 0 0 -0.016222742426080961 -0.11710360510809247 -0.0050176193310845357 0 -0.0050176193310845357 0.00088622360751663964 0 0 0 -0.029054345375143949 -0.0046961981466421832 0.0043987102071599837 0 0.0043987102071599837 0.047718841230693365 0 0 0 0.010755660771012809 -0.028850340032372895 0.0064552321880700231 0 0.0064552321880700231 -0.00033249919760948085 0 0 0 -0.0072957098074955973 0.01209767552009537 -0.0016889520321077267 0 -0.0016889520321077267 0.010428636012626178 0 0 0 0.005631577883180373 0.011919510814426659 0.0035166576901142221 0 0.0035166576901142221 0.031463708038768523 0 0 0 0.010845804713298823 0.01450012681919649 -0.0056852126957894211 0 -0.0056852126957894211 0.060659343430131019 0 0 0 0.018789867562331919 0.0172096884488529 0.00039840070926400184 0 0.00039840070926400184 0.033515247926908298 0 0 0 0.012681234093940286 -0.010311229323845324 0.0058492073005347034 0 0.0058492073005347034 -0.016094152770464332 0 0 0 -0.0066013455235774468 -0.0099781701296637326 -0.012161078660349725 0 -0.012161078660349725 -0.016582950921942508 0 0 0 -0.0066402802629015878 0.002271160586773957 0.0013507717176256123 0 0.0013507717176256123 0.048916070851175664 0 0 0 0.012796807859487405 -0.0047831460360385492 -0.0060444147807278692 0 -0.0060444147807278692 0.024111036012389231 0 0 0 0.0048319724940876774 -0.024163856174086683 0.0033077156393736783 0 0.0033077156393736783 0.021555981781233441 0 0 0 -0.00065196859821331499 -0.0035880251103328487 0.020253620323963162 0 0.020253620323963162 -0.0082440890003003808 0 0 0 -0.0029580285276582519 -0.0046743012918455396 0.0081406320110421204 0 0.0081406320110421204 -0.0056831864644459884 0 0 0 -0.0025893719390726044 -0.0035902153228937195 -0.0058769697448504132 0 -0.0058769697448504132 -0.0040664788344177971 0 0 0 -0.0019141735393278791 -0.0045827056434800673 -0.016430074694755714 0 -0.016430074694755714 -0.0093356520824614542 0 0 0 -0.0034795894314855191 -0.0059913738085418788 0.0045670249927677788 0 0.0045670249927677788 -0.0011685380544189591 0 0 0 -0.0017899779657402116 -0.0083611035670713568 0.021968730819785787 0 0.021968730819785787 0.0045784341550012542 0 0 0 -0.00094566735301741811 -0.0030441688443180251 -0.0053360782596800771 0 -0.0053360782596800771 -0.0023723663314303423 0 0 0 -0.0013541337939371248 -0.016866851747902319 -0.0001671571302197675 0 -0.0001671571302197675 0.038223701672932417 0 0 0 0.0053392124812575228 -0.004272318496724159 0.0075600472694830056 0 0.0075600472694830056 -0.0037628302933296887 0 0 0 -0.0020087871975134064 -0.0079735171537955729 -0.018261219142687413 0 -0.018261219142687413 0.0013797372195627489 0 0 0 -0.001648444983558317 0.00080618967216269932 -0.01279131244940343 0 -0.01279131244940343 0.011163187964836563 0 0 0 0.0029923444092498086 -0.019657383650568142 -0.011540736138910088 0 -0.011540736138910088 0.0058600474636428118 0 0 0 -0.0034493340467313394 -0.018682907804026483 -0.010520386327760541 0 -0.010520386327760541 0.0081943854064481791 0 0 0 -0.0026221305993945759 -0.0051784227304561888 -0.0069910736027334894 0 -0.0069910736027334894 -0.006138601145723125 0 0 0 -0.002829255969044825 -0.008985947542742706 0.038075775927555622 0 0.038075775927555622 0.0095712215357849906 0 0 0 0.00014631849826055032 -0.044842005538551014 -0.0042024154441857309 0 -0.0042024154441857309 -8.2031525220349621e-06 0 0 0 -0.011212552172768245 0.018808478380495704 -0.012296840735099648 0 -0.012296840735099648 0.01468808674074467 0 0 0 0.0083741412803100997 -0.0010356085988670917 -0.0077484185821769871 0 -0.0077484185821769871 0.0083545139392779411 0 0 0 0.0018297263351027028 0.0053756461903547628 0.011314325894513191 0 0.011314325894513191 0.007807133873774047 0 0 0 0.0032956950160322046 -0.013369057163835962 -0.0070034653844106703 0 -0.0070034653844106703 -0.0067488122672902939 0 0 0 -0.0050294673577815918 -0.014120623359042767 -0.0079379526855496707 0 -0.0079379526855496707 -0.011950079863030094 0 0 0 -0.0065176758055181805 -0.14092218222309955 0.00091800368336077988 0 0.00091800368336077988 0.0033765162769154866 0 0 0 -0.034386416486546001 -0.074284901105712814 -0.00037038318366098264 0 -0.00037038318366098264 0.0014425361393646252 0 0 0 -0.018210591241587068 -0.009290615308470555 -0.0033309134749765477 0 -0.0033309134749765477 -0.0030980862385808191 0 0 0 -0.0030971753867628442 -0.013846287249650807 0.0044021471120910295 0 0.0044021471120910295 -0.0046152859046951792 0 0 0 -0.0046153932885864973 0.0095299045421459207 0.0028754333308952731 0 0.0028754333308952731 -3.3074155232751257e-05 0 0 0 0.0023742075967282915 0.00060398130565749407 0.010221800465177226 0 0.010221800465177226 0.0089838815371111914 0 0 0 0.0023969657106921744 0.0031507361643005423 0.0062981811579040682 0 0.0062981811579040682 0.0001519971481352602 0 0 0 0.0008256833281089478 -0.054874542761040139 -0.0097557060001285216 0 -0.0097557060001285216 -0.0055122318586939487 0 0 0 -0.015096693654933525 -0.040097773388499486 0.0039160830182122189 0 0.0039160830182122189 -0.0024080607997486016 0 0 0 -0.010626458547062026 0.033729591980623641 0.01720140737379286 0 0.01720140737379286 0.012325703790913245 0 0 0 0.011513823942884249 -0.044031961774417205 -0.0091912466136987968 0 -0.0091912466136987968 -0.0030204813900805861 0 0 0 -0.011763110791124456 -0.034722062550690852 0.0039083926455764735 0 0.0039083926455764735 -0.0013824863376724417 0 0 0 -0.0090261372220908215 -0.017563911712262764 -0.0028998390571024976 0 -0.0028998390571024976 -0.0058330329430058558 0 0 0 -0.0058492361638171342 0.030042050475609594 0.04545606554507467 0 0.04545606554507467 0.030178840769637838 0 0 0 0.015055222811311886 0.0073189598857229081 0.0047277010672054139 0 0.0047277010672054139 -0.0029068988323791567 0 0 0 0.0011030152633359405 -0.012884480916690776 -0.0049482182091139387 0 -0.0049482182091139387 0.0044035706083194182 0 0 0 -0.002120227577092855 -0.024262165869109589 -0.005994247239731079 0 -0.005994247239731079 -0.0080855665786321949 0 0 0 -0.0080869331119354428 -0.023305825647297124 0.0040991801791389624 0 0.0040991801791389624 -0.0077666117385213158 0 0 0 -0.0077681093464546103 -0.056724630009286542 0.0025233961400827217 0 0.0025233961400827217 -0.00038741248011440327 0 0 0 -0.01427801062235024 -0.092880045086042806 -0.0059981034928933974 0 -0.0059981034928933974 -0.00076913931734676894 0 0 0 -0.023412296100847392 -0.032504013772371707 -0.0024609561578788075 0 -0.0024609561578788075 0.01187029640403825 0 0 0 -0.0051584293420833954 0.01377565389548463 -0.0083861593144685664 0 -0.0083861593144685664 0.013445654499411597 0 0 0 0.0068053270987240566 -0.021995163037120236 -0.0043973447369512336 0 -0.0043973447369512336 0.027393328250251939 0 0 0 0.0013495413032829345 -0.0038368006398644475 0.0089358705158026526 0 0.0089358705158026526 0.015092735641215792 0 0 0 0.0028139837503378361 -0.0098136292668612405 0.0062202577624620638 0 0.0062202577624620638 0.017192239732767161 0 0 0 0.0018446526164764779 0.013244531096270825 0.01038574577757817 0 0.01038574577757817 0.011994768902200753 0 0 0 0.0063098249996178905 0.020361378593828621 0.0077878317627898055 0 0.0077878317627898055 0.0059669617207698082 0 0 0 0.0065820850786496056 -0.010059314641163164 -0.009190097635913469 0 -0.009190097635913469 -0.025286575135438638 0 0 0 -0.0088364724441504783 -0.026771382043267782 -0.0090089873486260408 0 -0.0090089873486260408 0.013093508496986039 0 0 0 -0.003419468386570446 -0.026559345223568481 -0.014783308728432202 0 -0.014783308728432202 0.030245525518121222 0 0 0 0.00092154507363818861 -0.0019968554225697731 -0.025427964738439016 0 -0.025427964738439016 0.049413356773017822 0 0 0 0.011854125337612004 -0.052337807575146569 0.0023653329988785228 0 0.0023653329988785228 -0.00027571841467565611 0 0 0 -0.01315338149745556 -0.082180066067406327 -0.0051471502047756379 0 -0.0051471502047756379 -0.00071720505825478148 0 0 0 -0.020724317781415279 -0.0010067638855376275 -0.0014304697526587862 0 -0.0014304697526587862 -0.033768243294672484 0 0 0 -0.0086937517950525425 0.0015641785493729077 -0.018781877786935651 0 -0.018781877786935651 0.035427571955088333 0 0 0 0.0092479376261153101 0.0014514917494606724 0.0061502090817046259 0 0.0061502090817046259 -0.002022258858831557 0 0 0 -0.00014269177734272265 -0.041813868663115275 -0.0091695954930380106 0 -0.0091695954930380106 -0.0067365357840154204 0 0 0 -0.012137601111782673 -0.032998736375726284 0.0042453600069639478 0 0.0042453600069639478 -0.0034893927723901787 0 0 0 -0.0091220322870291144 -0.011868688386343487 0.0032556742270115164 0 0.0032556742270115164 -0.0022285430898088491 0 0 0 -0.0035243078690380841 -0.021289534471554572 -0.0019729907698864272 0 -0.0019729907698864272 0.029932016338355006 0 0 0 0.0021606204667001059 -0.010401960161737722 -0.0091994510637279092 0 -0.0091994510637279092 0.0017280828426712858 0 0 0 -0.0021684693297666091 -0.013157091962409247 0.0044556782821555015 0 0.0044556782821555015 -0.0012558920497502055 0 0 0 -0.0036032460030398644 -0.041357844283666789 0.0097378928049485225 0 0.0097378928049485225 0.00054698660400309684 0 0 0 -0.010202714419915937 -0.0028131248568710465 -0.011854312702410885 0 -0.011854312702410885 0.023063567839766042 0 0 0 0.0050626107457237557 0.001784519343843799 -0.0099862055710965847 0 -0.0099862055710965847 0.019484161446141957 0 0 0 0.0053171701974964181 -0.015341340392804478 -0.011685591808637024 0 -0.011685591808637024 0.022674193792403097 0 0 0 0.0018332133498996511 -0.020315537029685991 -0.0084778556447223097 0 -0.0084778556447223097 0.015082895930324663 0 0 0 -0.0013081602748403476 -0.011101645958398777 0.0009056244738618553 0 0.0009056244738618553 0.012054905598616101 0 0 0 0.00023831491005432866 -0.020369200017906521 -0.0020942805998006788 0 -0.0020942805998006788 0.029049118638837031 0 0 0 0.0021699796552326258 0.0020943615941226845 0.02016903812002635 0 0.02016903812002635 0.042300458568033328 0 0 0 0.011098705040538892 -2.6603562758131805e-05 -0.00032730055033280969 0 -0.00032730055033280969 0.00042413264329743683 0 0 0 9.93822701346736e-05 -0.00054361004391609291 -0.015941823292358936 0 -0.015941823292358936 0.021334210433111678 0 0 0 0.005197650097298917 9.0055597126159626e-06 0.00048313910023889406 0 0.00048313910023889406 0.00048810680428035269 0 0 0 0.00012427809099824216 -0.01048223383953902 0.0029345303921182262 0 0.0029345303921182262 0.013062336148076467 0 0 0 0.00064502557713436073 -0.011891461620957536 0.0013167288926795671 0 0.0013167288926795671 0.0082517633945923367 0 0 0 -0.00090992455659130028 -0.011651555786785717 -0.0039320094772037368 0 -0.0039320094772037368 0.011840150622164352 0 0 0 4.714870884466385e-05 -0.073854634669691749 -0.010048347006099446 0 -0.010048347006099446 0.00052565536551123226 0 0 0 -0.018332244826045126 -0.085885494635084741 -0.013972311953200374 0 -0.013972311953200374 0.00076614147684851697 0 0 0 -0.021279838289559077 -0.0081438902196155263 -0.015092499515550015 0 -0.015092499515550015 -0.0027233964444000058 0 0 0 -0.0027168216660038869 -0.018441445398634401 0.0014459709010032655 0 0.0014459709010032655 0.0028465634969440309 0 0 0 -0.0038987204754225907 -0.0026372571457250159 -0.0166597441570926 0 -0.0166597441570926 0.027819278716141906 0 0 0 0.0062955053926042302 -0.031788385238721462 0.0047673353152388525 0 0.0047673353152388525 -0.0032632504875567243 0 0 0 -0.008762908931569547 -0.026185805381471774 0.0043493778788817432 0 0.0043493778788817432 -0.0042003123892488687 0 0 0 -0.0075965294426801611 -0.027454539829628428 -0.0085425616930493373 0 -0.0085425616930493373 -0.0082437884900744829 0 0 0 -0.0089245820799257261 -0.038467203638488448 -0.010075196297782299 0 -0.010075196297782299 -0.0083073145514874491 0 0 0 -0.011693629547493973 -0.035681179333780955 -0.011913469314678155 0 -0.011913469314678155 0.0011355657003275788 0 0 0 -0.0086364034083633578 -0.02704843954646885 -0.013295956051907871 0 -0.013295956051907871 0.0010852159581591359 0 0 0 -0.0064908058970774007 -0.010350392228131416 -0.0032888482996254525 0 -0.0032888482996254525 -0.0079463512825785378 0 0 0 -0.0045741858776774886 -0.009976878462488261 -0.0038082349806406765 0 -0.0038082349806406765 -0.0090863267032391393 0 0 0 -0.0047658012914318509 -0.014039665171165859 0.0050713088306559469 0 0.0050713088306559469 -0.0044347154276701273 0 0 0 -0.0046185951497089974 -0.015655583111644347 0.0039098870469530516 0 0.0039098870469530516 -0.0055068760031996289 0 0 0 -0.0052906147787109958 -0.01252418594150162 0.029511529745209097 0 0.029511529745209097 -0.0033983676671600627 0 0 0 -0.0039806384021653374 -0.015508831915836296 -0.017241521308900165 0 -0.017241521308900165 -0.0032046940763439391 0 0 0 -0.0046783814980451144 -0.022630006374804463 0.0036433211453468081 0 0.0036433211453468081 -0.0033538304937808933 0 0 0 -0.0064959592171463382 -0.016060336910982968 -0.0069510498363005574 0 -0.0069510498363005574 -0.008850841696751148 0 0 0 -0.0062277946519335289 -0.012205937544925802 -0.00089777902752930482 0 -0.00089777902752930482 0.0051800867420657704 0 0 0 -0.0017564627007150037 -0.028314580112162886 0.004166815468925898 0 0.004166815468925898 -0.0023055205882674297 0 0 0 -0.0076550251751075805 -0.029624407664525117 -0.0095114726556384012 0 -0.0095114726556384012 -0.0056218347787648573 0 0 0 -0.0088115606108224876 -0.039530110943537408 -0.0085660871699690389 0 -0.0085660871699690389 0.045961769546743136 0 0 0 0.0016079146508014425 -0.012960986811725679 0.00025674705053695471 0 0.00025674705053695471 0.0063153582819782967 0 0 0 -0.0016614071324368472 -0.032825360877307891 -0.0058991896188648309 0 -0.0058991896188648309 -0.010947292522489752 0 0 0 -0.010943163349949412 -0.02788594974779306 0.0033194431243633031 0 0.0033194431243633031 -0.0092980005726520532 0 0 0 -0.0092959875801112771 0.022060414450871091 0.0049355860699325767 0 0.0049355860699325767 0.013615820772472031 0 0 0 0.0089190588058357875 -0.0040628815638302784 -0.0018234240363748933 0 -0.0018234240363748933 -0.032998540453818337 0 0 0 -0.0092653555044121538 -0.024275885701915953 0.0033696181764250946 0 0.0033696181764250946 0.0038069031963212235 0 0 0 -0.0051172456263986685 0.010339658058610979 -0.013989710225356777 0 -0.013989710225356777 0.0086719834922742156 0 0 0 0.0047529103877212986 -0.010853006010186097 0.0035830431417605592 0 0.0035830431417605592 0.013088251980278149 0 0 0 0.00055881149252301129 -0.015633737332078731 -0.002990468251927655 0 -0.002990468251927655 0.014355785845114896 0 0 0 -0.0003194878717409531 -0.064411244909643797 -0.0043393950838551323 0 -0.0043393950838551323 -0.0045837411464556138 0 0 0 -0.017248746514024853 -0.044975151923860895 0.0010608983387887481 0 0.0010608983387887481 -0.0031261894758870083 0 0 0 -0.01202533534993698 0.00060110344725325046 -0.0073664387784523749 0 -0.0073664387784523749 0.016352012928808474 0 0 0 0.0042382790940154284 -0.0074924768755706009 0.0059425174374463877 0 0.0059425174374463877 0.0080269978259413857 0 0 0 0.00013363023759269729 -0.013929495761809218 -8.6512864132316444e-05 0 -8.6512864132316444e-05 0.0036930273295236841 0 0 0 -0.0025591171080713852 -0.041531056452840678 0.0024010347350900511 0 0.0024010347350900511 0.0020239426569864938 0 0 0 -0.0098767784489635496 -0.058163961236330497 0.0099734074022048702 0 0.0099734074022048702 0.00072843699764724157 0 0 0 -0.01435888105967098 -0.018211321160915728 0.00091188165645788438 0 0.00091188165645788438 0.011398292985144914 0 0 0 -0.0017032570439426825 -0.018342351928629423 -0.0088940800846902465 0 -0.0088940800846902465 0.010851898632616735 0 0 0 -0.0018726133240031737 -0.01699196840058121 0.0021621367038756889 0 0.0021621367038756889 0.0039157618626133109 0 0 0 -0.003269051634491987 -0.006694209407693546 0.0058019545420118692 0 0.0058019545420118692 0.010679390062618479 0 0 0 0.00099629516373123204 -0.023389620346070492 -0.011485671436383918 0 -0.011485671436383918 0.0080578432445412018 0 0 0 -0.0038329442753823328 0.03648785783676884 0.0069658508106261591 0 0.0069658508106261591 0.039562073324209912 0 0 0 0.019012482790244693 -0.020145816851804714 0.0046075315153357253 0 0.0046075315153357253 0.0011294693867939173 0 0 0 -0.0047540868662526957 -0.041169996998143166 0.0086110934029219096 0 0.0086110934029219096 -0.0011107064717581494 0 0 0 -0.010570175867475218 0.0018201242387677341 -0.01072984769942692 0 -0.01072984769942692 0.025110944531397061 0 0 0 0.0067327671925412613 0.010606546089971969 -0.0079497689687645923 0 -0.0079497689687645923 0.017218010330874112 0 0 0 0.006956139105211534 -0.054583060914160472 -0.017170135871132503 0 -0.017170135871132503 0.014395750571156125 0 0 0 -0.010046827585751098 0.006459515955461478 -0.0058174149436046596 0 -0.0058174149436046596 -0.007001270784190862 0 0 0 -0.00013543870718235075 -0.055194541828436729 0.0045791701793132869 0 0.0045791701793132869 0.001016931533727089 0 0 0 -0.01354440257367738 -0.09467773867189086 -0.013301254347221569 0 -0.013301254347221569 0.0027492558509315326 0 0 0 -0.022982120705239847 -0.054660787780657992 0.0013101826386224258 0 0.0013101826386224258 -0.00033526065082985224 0 0 0 -0.01374901210787198 -0.095505860171581552 -0.0045846865226950445 0 -0.0045846865226950445 0.000285818019345907 0 0 0 -0.023805010538058904 -0.039170076074060846 0.0012025142898443126 0 0.0012025142898443126 -0.0048706057182490315 0 0 0 -0.011010170448077474 -0.05346741689609491 -0.0039637612647892423 0 -0.0039637612647892423 -0.0063510734249963693 0 0 0 -0.014954622580272818 -0.016987462231390676 -0.0049200919201228353 0 -0.0049200919201228353 0.019232386002234932 0 0 0 0.00056123094271107177 -0.015285925673605634 -0.0095885661644997781 0 -0.0095885661644997781 0.025138896193195627 0 0 0 0.0024632426298974944 -0.0060179703163010523 -0.0018225028760887607 0 -0.0018225028760887607 0.028359050453148904 0 0 0 0.0055852700342119699 0.0026205885656980094 -0.0015450813648985873 0 -0.0015450813648985873 0.055718785909146584 0 0 0 0.014584843618711166 -0.0029975569333446916 0.0031949867575975857 0 0.0031949867575975857 0.016522560839564271 0 0 0 0.0033812509765548948 -5.5072239499812103e-05 0.00073297381852850674 0 0.00073297381852850674 0.048026915418525967 0 0 0 0.011992960794756521 -0.011943615591656562 -0.0056334442207372215 0 -0.0056334442207372215 0.023972231395003707 0 0 0 0.0030071539508367967 -0.016590844940732135 0.0023835470693760212 0 0.0023835470693760212 0.0043528932835119319 0 0 0 -0.0030594879143050514 -0.0077901451047014576 -0.0089245337810157678 0 -0.0089245337810157678 0.020400769837774543 0 0 0 0.0031526561832682758 -0.016766415269856762 -0.010165704578801553 0 -0.010165704578801553 0.017637954211734058 0 0 0 0.00021788473546933279 -0.012958808938041201 0.0017441498426077192 0 0.0017441498426077192 0.024909426947134026 0 0 0 0.0029876545022732067 -0.083279805656007344 0.008774747422670091 0 0.008774747422670091 -0.00020327798426533761 0 0 0 -0.020870770910068059 -0.020888742013988867 -0.0017830795073119667 0 -0.0017830795073119667 0.02822672216037115 0 0 0 0.0018344950365955723 0.012423381245654341 -0.011076645881299869 0 -0.011076645881299869 0.068242391149088977 0 0 0 0.020166443098685843 0.040108492581637525 -0.012399515663862231 0 -0.012399515663862231 0.033972789697551686 0 0 0 0.018520320569797327 0.017273678111802943 -0.0077131462719629007 0 -0.0077131462719629007 0.014058436358720616 0 0 0 0.0078330286176308828 -0.10581889664353281 -0.010158011499606004 0 -0.010158011499606004 0.0029206190478994754 0 0 0 -0.025724569398908353 -0.059590662534734017 0.0038913979037577401 0 0.0038913979037577401 0.0010476331326473732 0 0 0 -0.014635757350521628 -0.021684010232420781 -0.0017207421864576041 0 -0.0017207421864576041 0.029299796968372541 0 0 0 0.001903946683987941 -0.046920398243093908 0.022264019231247656 0 0.022264019231247656 -0.0027578262225156358 0 0 0 -0.012419556116402442 -0.034471241739302716 0.024113851003322528 0 0.024113851003322528 0.0013918926120806141 0 0 0 -0.0082698372818053034 -0.010465562387253546 -0.018236607587319043 0 -0.018236607587319043 0.008083903192884323 0 0 0 -0.00059541479859231972 -0.0055356300490676143 -0.015370551350211759 0 -0.015370551350211759 0.0097272139722808827 0 0 0 0.0010478959808033308 -0.0054253816502174146 -0.013272292749388626 0 -0.013272292749388626 0.027809747671874718 0 0 0 0.0055960915054143745 -0.02118351963874554 0.0074143631608240687 0 0.0074143631608240687 0.00058328739280266717 0 0 0 -0.0051500580614858293 -0.022016665134108639 0.0043936035957380425 0 0.0043936035957380425 -0.0034556816867696676 0 0 0 -0.0063680867052195783 -0.019074136020343739 -0.0056831871061578196 0 -0.0056831871061578196 -0.0082049812798220441 0 0 0 -0.0068197793250414441 -0.013975365849819482 -0.020305143328358644 0 -0.020305143328358644 0.0040591387527551259 0 0 0 -0.0024790567742660474 -0.013498393777400641 -0.017772171038558368 0 -0.017772171038558368 0.0044658427950148294 0 0 0 -0.0022581377455964668 -0.017545167159267919 -0.018524175250215269 0 -0.018524175250215269 0.0018698399591422221 0 0 0 -0.0039188318000314554 -0.017544392927326069 -0.01964202664351325 0 -0.01964202664351325 0.0035912929579973163 0 0 0 -0.0034882749923321743 -0.028962639429248968 0.031500681009965725 0 0.031500681009965725 -0.0028116043647042344 0 0 0 -0.0079435609484884012 -0.01993439411415172 0.028372786675366912 0 0.028372786675366912 -0.0020376143234135148 0 0 0 -0.0054930021093914753 -0.025303208776890268 0.0051263949743753237 0 0.0051263949743753237 -0.0063978161007559771 0 0 0 -0.0079252562194115604 -0.029333038558210775 -0.0087365035277361218 0 -0.0087365035277361218 -0.0095332199696858393 0 0 0 -0.009716564631974154 -0.053211164546664011 -0.0046695678901296361 0 -0.0046695678901296361 0.0038507888322354966 0 0 0 -0.012340093928607174 -0.093400015143490861 0.011049216489459654 0 0.011049216489459654 0.0054895837985995399 0 0 0 -0.021977607836222796 -0.038369456879560018 0.0063926028536055515 0 0.0063926028536055515 0.00086392472213424332 0 0 0 -0.0093763830393564541 -0.0064360659160887452 0.0055825352371820514 0 0.0055825352371820514 0.0039402415691470617 0 0 0 -0.00062395608673542196 -0.0037952465846074757 -0.007782393253001979 0 -0.007782393253001979 -0.023390083126579198 0 0 0 -0.0067963324277966475 -0.060665151084462667 -0.012986320384780075 0 -0.012986320384780075 0.00081401173301956509 0 0 0 -0.014962784837860781 -0.082434196116468364 -0.011276576928734532 0 -0.011276576928734532 -0.0024139424324936612 0 0 0 -0.021212034637240508 -0.0015643969149760255 -1.0066697660778251e-05 0 -1.0066697660778251e-05 -0.0081845123555543374 0 0 0 -0.0024372273176325914 -0.0080189396536964816 0.004099966027212229 0 0.004099966027212229 0.03191174854034548 0 0 0 0.0059732022216622549 -0.061332292401248829 -0.00021137080815810533 0 -0.00021137080815810533 -0.00030997961378578798 0 0 0 -0.015410568003758653 -0.11213715287692899 -0.00018861591558957946 0 -0.00018861591558957946 -0.000855541837964581 0 0 0 -0.028248173678723343 -0.031426407313475554 -0.003603315065844756 0 -0.003603315065844756 0.0048375792456950423 0 0 0 -0.0066472070169451419 -0.043895218513454515 -0.012591081953008194 0 -0.012591081953008194 -0.0065561213091914726 0 0 0 -0.012612834955661508 -0.030305311113932764 -0.012046120872855354 0 -0.012046120872855354 -0.0046687316661653292 0 0 0 -0.0087435106950245305 0.0062385576319176628 0.039055675037445947 0 0.039055675037445947 0.082287473414927481 0 0 0 0.022131507761711244 -0.075381119394159604 -0.0047338680956145497 0 -0.0047338680956145497 2.8715089731453508e-05 0 0 0 -0.018838101076107037 -0.048179473744901655 0.0021438894081167118 0 0.0021438894081167118 0.0002286673534828837 0 0 0 -0.011987701597854696 -0.014149215376519142 -0.0078845476419920832 0 -0.0078845476419920832 -0.0062795943787533615 0 0 0 -0.0051072024388181259 -0.01595891399454509 -0.0078227608814622832 0 -0.0078227608814622832 -0.0028715826632575991 0 0 0 -0.0047076241644506411 -0.0087867309713499375 0.0055797376373347245 0 0.0055797376373347245 0.019234774972220987 0 0 0 0.0026120110002177612 -0.0074024042072179143 -0.0083726259230858698 0 -0.0083726259230858698 -0.00087303985247638716 0 0 0 -0.0020688610149235676 0.0010593942808972369 0.0083828564158940251 0 0.0083828564158940251 0.0016314418698696494 0 0 0 0.00067270903769172091 0.0037679441890481336 0.0066828736130730149 0 0.0066828736130730149 0.076157135698523559 0 0 0 0.019981269971892979 -0.038355379678993752 0.0061078455033233801 0 0.0061078455033233801 0.0013057964946354868 0 0 0 -0.0092623957960895811 -0.013679120056743788 0.0012317970437693939 0 0.0012317970437693939 0.0031671401227544981 0 0 0 -0.0026279949834973294 0.050790375213009553 0.0086768871889156152 0 0.0086768871889156152 0.028510963551105384 0 0 0 0.019825334691028651 -0.043219946480820025 -0.00503487362572691 0 -0.00503487362572691 -0.0011697008602401596 0 0 0 -0.011097411835265102 -0.13311969607715535 -0.0015980973167816909 0 -0.0015980973167816909 -0.0005840017925501928 0 0 0 -0.033425924467426399 -0.071348585569156853 0.00021244412423239634 0 0.00021244412423239634 -0.00044508488978486915 0 0 0 -0.017948417614735424 -0.019303989475837242 0.0015437134645002078 0 0.0015437134645002078 0.032027819902834556 0 0 0 0.0031809576067493225 -0.044518325024622316 -0.010148996916164834 0 -0.010148996916164834 -0.0032895598262933775 0 0 0 -0.011951971212728927 -0.054769437909436128 -0.013507017403747568 0 -0.013507017403747568 -0.0019235508088872278 0 0 0 -0.014173247179580821 0.02376442696731404 0.013325073547670336 0 0.013325073547670336 0.014148189244866965 0 0 0 0.0094781540530452513 -0.02968504356363777 -0.0066512750086862235 0 -0.0066512750086862235 -0.00090981123917921458 0 0 0 -0.0076487137007041905 -0.019681087823007953 -0.009500681070719913 0 -0.009500681070719913 0.006843874318579371 0 0 0 -0.0032093033761071421 0.0055125914146036958 0.016079393130896416 0 0.016079393130896416 0.052702487257404229 0 0 0 0.014553769668001815 -0.014353058062111956 -0.0044109006091451056 0 -0.0044109006091451056 0.0010487355280077715 0 0 0 -0.0033260806335259074 -0.020470267431026652 -0.019083832974771703 0 -0.019083832974771703 0.014954494701993837 0 0 0 -0.0013789431822581952 -0.010390584054576331 -0.003307042249597051 0 -0.003307042249597051 0.020016884519830469 0 0 0 0.0024065751163135363 -0.018676915598607572 0.00096608704319827224 0 0.00096608704319827224 0.0069457386809103905 0 0 0 -0.0029327942294243049 -0.031041415732796951 0.0075993321605696273 0 0.0075993321605696273 -0.00097940383656824892 0 0 0 -0.0080052048923411334 -0.0027070713406767144 -0.012210541086064786 0 -0.012210541086064786 0.029508466427146773 0 0 0 0.0067003487716175147 -0.019217179228890064 0.004022581931862698 0 0.004022581931862698 -0.0013225606725276119 0 0 0 -0.0051349349753544169 0.012594193108100234 -0.0044337343356378386 0 -0.0044337343356378386 0.021167525681235561 0 0 0 0.0084404296973339468 -0.046719146533230761 0.0042557696870075571 0 0.0042557696870075571 -6.4975461527755352e-05 0 0 0 -0.011696030498689607 -0.034962634982955848 -0.010157017448643398 0 -0.010157017448643398 0.013090651679572241 0 0 0 -0.0054679958258459088 -0.035659448428532789 0.0059299408970753253 0 0.0059299408970753253 -0.0014698697806701903 0 0 0 -0.0092823295523007526 -0.048937798599527016 -0.0059227048430209872 0 -0.0059227048430209872 0.000985777696217216 0 0 0 -0.011988005225827436 -0.050433419663259489 0.0035758984274393765 0 0.0035758984274393765 -0.00057834215152818835 0 0 0 -0.01275294045369693 -0.042797626000069297 0.0043370983009400395 0 0.0043370983009400395 0.00028907478934533937 0 0 0 -0.010627137802680988 -0.049827229010263929 0.027932574832746804 0 0.027932574832746804 0.0016266897695197402 0 0 0 -0.012050134810186075 -0.019892200741080023 -0.0048685590328568559 0 -0.0048685590328568559 -0.0082099953220902983 0 0 0 -0.0070255490157925832 -0.023874011174775896 -0.0086982080391751031 0 -0.0086982080391751031 -0.0093254747883120825 0 0 0 -0.0082998714907719911 -0.023142879179104736 0.0053493229079555789 0 0.0053493229079555789 -0.0050398940499767723 0 0 0 -0.007045693307270378 -0.021593470932795587 0.0036513994394686165 0 0.0036513994394686165 -0.0057592761895619397 0 0 0 -0.0068381867805893792 -0.013238367940477232 -0.0024208929913892632 0 -0.0024208929913892632 0.0093616618537979493 0 0 0 -0.0009691765216698206 -0.010062336632412157 -0.014929469979253415 0 -0.014929469979253415 0.02941071905377167 0 0 0 0.0048370956053398872 -0.017170314137411935 -0.010055000997658256 0 -0.010055000997658256 0.014637090098271455 0 0 0 -0.00063330600978512501 -0.022765511775064015 -0.0084844461486459771 0 -0.0084844461486459771 0.018331376615814798 0 0 0 -0.0011085337898122938 -0.017305389269325171 -0.0086342718810942867 0 -0.0086342718810942867 0.014157837584111405 0 0 0 -0.00078688792130344326 -0.010428424158349936 -0.0024101650485422853 0 -0.0024101650485422853 0.018486760091342258 0 0 0 0.0020145839832480805 -0.015378650753196499 -0.0059365575098177525 0 -0.0059365575098177525 0.011191446146581852 0 0 0 -0.001046801151653648 -0.074254469409348572 0.0018454298499884991 0 0.0018454298499884991 0.00030061019342614292 0 0 0 -0.018488464803980614 -0.14196245316752734 -0.0044503485649552716 0 -0.0044503485649552716 0.0021043911420139949 0 0 0 -0.03496451550637833 -0.0037620515642602277 -0.0035919733241677881 0 -0.0035919733241677881 0.011154448820923327 0 0 0 0.0018480993141657756 -0.0090663804489350408 -0.0042818262837552579 0 -0.0042818262837552579 0.019380758076563809 0 0 0 0.002578594406907192 -0.034694497800430886 0.005303609372459786 0 0.005303609372459786 0.0044528599040407624 0 0 0 -0.00756040947409755 -0.0063802045040643133 0.0032043785178886538 0 0.0032043785178886538 -0.0037925304031335375 0 0 0 -0.0025431837267994627 -0.014667248030909442 -0.0089169308775612459 0 -0.0089169308775612459 -0.006287367411804445 0 0 0 -0.0052386538606784723 -0.0065856097643962981 -0.0038347090140505337 0 -0.0038347090140505337 -0.0093055943924345037 0 0 0 -0.0039728010392077002 -0.0050581436334248778 -0.021229799987392047 0 -0.021229799987392047 0.048979114980879125 0 0 0 0.010980242836863564 -0.045159236563118148 0.0026438471467212206 0 0.0026438471467212206 -0.0017086712072025573 0 0 0 -0.011716976942580185 -0.040718999204675956 0.0024711354007393728 0 0.0024711354007393728 -0.00073287560581974985 0 0 0 -0.010362968702623924 -0.056051308902988484 -0.0062659487030956116 0 -0.0062659487030956116 -0.00090322552062299839 0 0 0 -0.014238633605902877 -0.06683141869151385 -0.0068614895197852185 0 -0.0068614895197852185 -0.0034005421969519733 0 0 0 -0.017557990222116439 -0.069066312500239951 -0.0035781211943505136 0 -0.0035781211943505136 0.0010066748555135341 0 0 0 -0.017014909411181611 -0.0037520108659453988 0.0364200438365678 0 0.0364200438365678 0.050436785977742371 0 0 0 0.011671193777949229 0.0072783608251720255 -0.0083947489136980691 0 -0.0083947489136980691 0.016925842828273197 0 0 0 0.0060510509133612778 -0.0065765727701213011 -0.006687539764759054 0 -0.006687539764759054 -0.017953540890295126 0 0 0 -0.0061325284151040587 -0.023033209143217173 0.0049537820288628126 0 0.0049537820288628126 -0.0014854183275183463 0 0 0 -0.0061296568676838846 -0.020141812625041566 -0.0004698685086311845 0 -0.0004698685086311845 0.023032975297981505 0 0 0 0.00072279066823498044 -0.038559125975656812 0.0045471038833561628 0 0.0045471038833561628 -0.00054582787432189139 0 0 0 -0.0097762384624946776 0.011837106398222996 0.019867737518092232 0 0.019867737518092232 0.011155527385307229 0 0 0 0.0057481584458825008 -0.0094328076133267137 0.0047591947533745169 0 0.0047591947533745169 -0.0040147094280154911 0 0 0 -0.0033618792603355512 -0.014874394910871953 -0.009847893092910634 0 -0.009847893092910634 -0.001933087863281148 0 0 0 -0.004201870693538258 0.020062935546269433 -0.029851892640624225 0 -0.029851892640624225 0.037397092807985428 0 0 0 0.014365007088563718 -0.12600529442580266 0.0087119602273912911 0 0.0087119602273912911 0.0016412743908937877 0 0 0 -0.031091005008727135 -0.0029624387759975696 0.001930176320386169 0 0.001930176320386169 -0.0047892374437818585 0 0 0 -0.0019379190549448574 -0.0271206396622573 0.0034335685155673411 0 0.0034335685155673411 -0.006383713427466256 0 0 0 -0.0083760882724308889 -0.030278506092973782 -0.0058256119483191182 0 -0.0058256119483191182 -0.0088155691863442444 0 0 0 -0.0097735188198295013 -0.003425595305070547 0.0072222319314637507 0 0.0072222319314637507 0.0065742233154874458 0 0 0 0.00078715700260422426 -0.054499777351069839 0.0040079272090601109 0 0.0040079272090601109 0.0012147862295234235 0 0 0 -0.013321247780386611 -0.093643928403032817 -0.010599947941688559 0 -0.010599947941688559 0.0041434647575438188 0 0 0 -0.022375115911372256 0.0055949153735332935 0.01841784320026274 0 0.01841784320026274 0.02454140433819596 0 0 0 0.0075340799279324244 -0.027120943768538686 -0.008967589564259193 0 -0.008967589564259193 -0.0022169200981156933 0 0 0 -0.0073344659666635392 -0.0054108567448563072 0.0023961333589541528 0 0.0023961333589541528 0.028410526245237988 0 0 0 0.0057499173750954063 0.00012103900718511695 -0.015521667542859566 0 -0.015521667542859566 0.004979453179415505 0 0 0 0.0012751230466501728 -0.011523328331839715 0.0012383346883706459 0 0.0012383346883706459 0.010260360390547008 0 0 0 -0.0003157419853231716 -0.0072943586415969604 0.0047028305400262926 0 0.0047028305400262926 0.0025861355239812089 0 0 0 -0.0011770557794039387 -0.0038250783068660274 9.8038606632541711e-05 0 9.8038606632541711e-05 -0.0065138719673039636 0 0 0 -0.0025847375685424979 -0.018615806776048363 0.0039519671127663655 0 0.0039519671127663655 0.00095888984135783159 0 0 0 -0.0044142292336726337 -0.012011700413995574 -0.0071781645841525604 0 -0.0071781645841525604 0.062018429870118782 0 0 0 0.012501682364030806 -0.012390486295534051 -0.0070112518605335641 0 -0.0070112518605335641 0.05772322180342461 0 0 0 0.011333183876972637 -0.022190572005343578 -0.014144671491467531 0 -0.014144671491467531 -0.00014015064667283195 0 0 0 -0.0055826806630040471 -0.020545921786730981 -0.013969488884801817 0 -0.013969488884801817 2.9974490914019825e-05 0 0 0 -0.0051289868239541292 -0.0051277517087641167 0.024799507761440687 0 0.024799507761440687 0.010659494389658075 0 0 0 0.0013829356702236284 -0.0084857984612014548 0.027345617594890514 0 0.027345617594890514 0.0077364646334405762 0 0 0 -0.00018733345694044168 -0.004112396277753505 0.026344921505996675 0 0.026344921505996675 0.0054290314360896375 0 0 0 0.00032915878958406086 0.016734269272300928 0.023959863441219142 0 0.023959863441219142 0.009495199555397793 0 0 0 0.0065573672069247912 -0.0057991356345550504 0.0031219150546809844 0 0.0031219150546809844 -0.0019335608065790607 0 0 0 -0.0019331741102835275 -0.0045890956717678233 0.0010335131426691263 0 0.0010335131426691263 0.037511440866905332 0 0 0 0.0082305862987843703 -0.010023519405797189 0.00018302858030097569 0 0.00018302858030097569 0.017480283816404568 0 0 0 0.0018641911026518673 -0.047081154405215098 -0.0077384109236521281 0 -0.0077384109236521281 0.0004753171298597092 0 0 0 -0.01165145931883893 -0.052778245431412324 -0.0026692901273450975 0 -0.0026692901273450975 -9.958126790199362e-05 0 0 0 -0.013219456674828628 -0.090811879325781247 0.0065470429588044832 0 0.0065470429588044832 -0.00045566865203217066 0 0 0 -0.022816886994453278 0.0060774554325379697 0.014035332841949941 0 0.014035332841949941 0.014514199082147468 0 0 0 0.0051479136286713585 0.0075594653295472797 0.014808835736090084 0 0.014808835736090084 0.017859808143062733 0 0 0 0.0063548183681525067 -0.0041392848085708995 0.0042495181551853939 0 0.0042495181551853939 -0.0034901484684046191 0 0 0 -0.0019073583192438792 -0.0068536998159253633 0.0038776808275870489 0 0.0038776808275870489 -0.0043776210706031882 0 0 0 -0.0028078302216321379 -0.078196049217636968 -0.0090968445207989124 0 -0.0090968445207989124 -0.0034997854346113695 0 0 0 -0.020423958663062076 -0.049045952385029477 0.0033861088703013124 0 0.0033861088703013124 -0.00075996466250926459 0 0 0 -0.012451479261884682 -0.043445537117281906 0.0053976370793140608 0 0.0053976370793140608 -0.0010590859381538163 0 0 0 -0.011126155763858921 0.0058596003405341213 0.019539454044298465 0 0.019539454044298465 0.032319104333267568 0 0 0 0.0095446761684503389 -0.023081361038513493 -0.0067786773665193811 0 -0.0067786773665193811 0.001981652123925759 0 0 0 -0.0052749272286469195 -0.0063566456956009936 -0.0013429963284948933 0 -0.0013429963284948933 -0.00536291529159708 0 0 0 -0.0029298902467995184 0.0028405444666065923 -0.00080575399748128744 0 -0.00080575399748128744 -0.0063567797829465773 0 0 0 -0.00087905882908499754 -0.031643787135103907 -0.011647647267160333 0 -0.011647647267160333 0.0036234902556817605 0 0 0 -0.0070050742198554672 -0.023308866149213417 -0.01225013921107793 0 -0.01225013921107793 -0.0033863900900303889 0 0 0 -0.0066738140598109463 -0.010478161785838304 -0.003208097910680649 0 -0.003208097910680649 0.012766148501056066 0 0 0 0.00057199667880444144 0.0095635261705352657 0.010101889947966257 0 0.010101889947966257 0.006450942866020784 0 0 0 0.0040036172591390098 -0.046705895562375588 0.025742429684475265 0 0.025742429684475265 0.0035727527311973928 0 0 0 -0.010783285707794632 -0.048276558766526978 0.0017101877338280558 0 0.0017101877338280558 0.0024459690844571003 0 0 0 -0.011457647420517497 -0.082912130017484903 -0.0033696210043852037 0 -0.0033696210043852037 0.0064009682237803345 0 0 0 -0.019127790448426191 -0.0016586913678423298 -0.0031104663376807368 0 -0.0031104663376807368 -0.02656668417361796 0 0 0 -0.0070563438853651073 -0.005685793381501103 -0.0054345771920306096 0 -0.0054345771920306096 -0.034415851462984648 0 0 0 -0.010025411211121493 -0.037476742329561122 0.0059908450261198752 0 0.0059908450261198752 -0.00031272966369912981 0 0 0 -0.0094473679983150677 -0.03141767507132974 0.0049803321451551315 0 0.0049803321451551315 -0.00082407767538875132 0 0 0 -0.0080604381866796193 -0.013189331104754363 0.00039288084008312282 0 0.00039288084008312282 0.0078248776207006238 0 0 0 -0.0013411133710134367 -0.050609887510759274 0.0059828521919626041 0 0.0059828521919626041 0.0011774544471098436 0 0 0 -0.012358108265912351 -0.051781120154048739 -0.013337141869358506 0 -0.013337141869358506 -0.0049536312886725963 0 0 0 -0.01418368786068035 -0.00083213763449754071 0.00010360839105338915 0 0.00010360839105338915 -0.033392790658203116 0 0 0 -0.0085562320731751781 -0.035431355742112869 0.033470657840477341 0 0.033470657840477341 0.0047509857087915108 0 0 0 -0.007670092508330284 -0.0073324803194467613 0.0037288154192031825 0 0.0037288154192031825 -0.0024446856361670243 0 0 0 -0.0024442914889034463 0.031629332639567576 0.0096227326633783195 0 0.0096227326633783195 0.031424191838025528 0 0 0 0.015763381119398123 0.024089286971011072 0.020683027787396724 0 0.020683027787396724 0.048144859799667712 0 0 0 0.018058536692669699 -0.07812965944539127 0.0041225292151512716 0 0.0041225292151512716 0.01241078660071919 0 0 0 -0.016429718211167985 0.011340903472113209 0.022818165919268954 0 0.022818165919268954 0.053129720067175673 0 0 0 0.016117655884822196 0.018950716904100565 0.018889519924005414 0 0.018889519924005414 0.033974941316108537 0 0 0 0.013231414555052279 -0.026415157295642706 0.005599630148413158 0 0.005599630148413158 0.00020584452292435329 0 0 0 -0.00655232819317959 -0.01514215718089406 0.0034772931788837882 0 0.0034772931788837882 -0.0012271445256069576 0 0 0 -0.0040923254266252542 -0.079155267943371022 0.021721230204219011 0 0.021721230204219011 0.0074229672010017733 0 0 0 -0.01793307518559234 -0.021425768437813419 -0.0071690079093838475 0 -0.0071690079093838475 0.028331723325634432 0 0 0 0.0017264887219552473 -0.0010866925775141921 0.016309389745943023 0 0.016309389745943023 0.059224799872517851 0 0 0 0.014534526823750917 -0.018550885256518788 -0.011882120554473803 0 -0.011882120554473803 0.0045095713847287389 0 0 0 -0.0035103284679475141 -0.058967952394899423 -0.00086884487585281445 0 -0.00086884487585281445 0.0012900174945981654 0 0 0 -0.014419483725075314 -0.10524388746466612 0.0024313529670696166 0 0.0024313529670696166 0.0051739810432911981 0 0 0 -0.025017476605343703 -0.034018667067541197 0.015868404025118465 0 0.015868404025118465 -0.0039300646841091691 0 0 0 -0.0094871829379125083 -0.0074362608824270204 -0.016776612630611754 0 -0.016776612630611754 0.011583771164485945 0 0 0 0.0010368775705147104 -0.018982008391056807 -0.0090630968645428189 0 -0.0090630968645428189 0.01084571721387112 0 0 0 -0.0020340727942964598 0.014368563856550751 0.01100735889578686 0 0.01100735889578686 0.0075396929323073708 0 0 0 0.0054770641972145331 -0.045369741123271808 -0.012870787421601172 0 -0.012870787421601172 -0.0079170969488908619 0 0 0 -0.013321709518040669 -0.046428562410278998 0.0045877529164569525 0 0.0045877529164569525 0.00077502890760336451 0 0 0 -0.011413383375668894 -0.066703493825746182 -0.0085380721363196715 0 -0.0085380721363196715 0.0028089806146497642 0 0 0 -0.015973628302774087 -0.0085293131177114831 -0.011173081458658075 0 -0.011173081458658075 0.0214407482985772 0 0 0 0.0032278587952164137 -0.035050034373302133 0.003550065319342148 0 0.003550065319342148 0.001467700710074335 0 0 0 -0.0083955834158069738 -0.01157527153826423 0.0055635828861937079 0 0.0055635828861937079 0.049483973542607668 0 0 0 0.0094771755010858577 -0.0045219754364941309 -0.00014362251772484635 0 -0.00014362251772484635 -0.0015063541047142066 0 0 0 -0.0015070823853020842 -0.016152209762336112 -0.0067268501723032753 0 -0.0067268501723032753 0.0053609494732692053 0 0 0 -0.0026978150722667127 -0.057221609894254073 0.0018737790867874721 0 0.0018737790867874721 0.0014186562019589538 0 0 0 -0.013950738423073768 -0.099878003392784159 -0.0059406205957582281 0 -0.0059406205957582281 0.0030893818227912262 0 0 0 -0.024197155392498261 -0.04747799573630121 -0.0096379129724161183 0 -0.0096379129724161183 0.0035177453156189781 0 0 0 -0.010990062605170523 -0.016430354711414831 -0.0080765432843637811 0 -0.0080765432843637811 0.014806987724289011 0 0 0 -0.00040584174678144624 -0.01103170464743608 -0.0051816518027356859 0 -0.0051816518027356859 0.027924107244053586 0 0 0 0.0042231006491544043 -0.024351648883122825 0.0041775964345325094 0 0.0041775964345325094 0.0015782891486568265 0 0 0 -0.0056933399336164918 -0.019376433510755908 -0.011139347079476988 0 -0.011139347079476988 0.0046267680340708606 0 0 0 -0.0036874163691712619 -0.033618811455759401 -0.011428863519803323 0 -0.011428863519803323 0.0013523417161496881 0 0 0 -0.0080666174349024421 -0.030768495541576006 0.0044068783873686315 0 0.0044068783873686315 0.0014142661540576251 0 0 0 -0.007338557346879597 -0.017074625227621924 -0.01171866278140106 0 -0.01171866278140106 0.0047946497812008937 0 0 0 -0.0030699938616052455 -0.0042137972765050359 -0.00032262651219230778 0 -0.00032262651219230778 -0.0075403613994112972 0 0 0 -0.0029385396689790835 -0.060046098009887479 0.0012807644719694256 0 0.0012807644719694256 0.0010867850260166956 0 0 0 -0.01473982824596768 -0.10929416550528273 -0.0029022799891165185 0 -0.0029022799891165185 0.0015819086893507639 0 0 0 -0.026928064203982999 -0.033746923814302741 -0.0053824026140362191 0 -0.0053824026140362191 -0.0017436295106368488 0 0 0 -0.0088726383312348264 0.018618450771871936 0.011822316564172652 0 0.011822316564172652 0.03951576075255514 0 0 0 0.014533552881106665 0.013256165972505951 0.017066062694354844 0 0.017066062694354844 0.028796545233770177 0 0 0 0.010513177801569074 -0.027462177827104695 -0.004799047126586669 0 -0.004799047126586669 -0.0014316081873726461 0 0 0 -0.0072234465036193907 0.020586564942445262 0.010831137140497578 0 0.010831137140497578 0.053352408134445639 0 0 0 0.018484743269222559 -0.0024189981771040731 -0.0076530666372051489 0 -0.0076530666372051489 0.0066883152790122302 0 0 0 0.0010673292754770358 -0.024181345434203944 -0.010711704054492469 0 -0.010711704054492469 0.0085471849710676562 0 0 0 -0.003908540115784051 0.0072620373517531256 0.0014052124783918453 0 0.0014052124783918453 0.037160911247700934 0 0 0 0.011105737149863515 0.0077635277407045455 -0.0041081087159819396 0 -0.0041081087159819396 0.068503437209378626 0 0 0 0.019066741237520779 -0.064620577077988545 -0.012798838798813286 0 -0.012798838798813286 0.013064343352813035 0 0 0 -0.012889058431293871 -0.028905922400388039 0.0045974052056746038 0 0.0045974052056746038 -0.00076965293330580591 0 0 0 -0.0074188938334234632 -0.0035551824297120711 0.0054658006386504674 0 0.0054658006386504674 -0.0013385059736449466 0 0 0 -0.0012234221008392534 -0.050436687670328828 0.023539314700565861 0 0.023539314700565861 -0.0011065549019120269 0 0 0 -0.012885810643060158 0.0032284372054912636 -0.013454744269428998 0 -0.013454744269428998 0.0091586403118376625 0 0 0 0.0030967693793322315 -0.0030009593847097641 0.000881040465148332 0 0.000881040465148332 -0.0046284500076744532 0 0 0 -0.0019073523480960543 -0.025792497108603117 0.0037267134399346369 0 0.0037267134399346369 0.0061684157067953826 0 0 0 -0.0049060203504519336 0.035160125853304636 0.01069038905870804 0 0.01069038905870804 0.031444553992336921 0 0 0 0.016651169961410139 -0.013156239013164046 -0.0062785923993380378 0 -0.0062785923993380378 -0.0092343866120544269 0 0 0 -0.0055976564063046179 -0.010086536474645597 -0.0036239236411030329 0 -0.0036239236411030329 0.0016486551956776535 0 0 0 -0.0021094703197419747 -0.0068810918548021325 -0.0059922275096534611 0 -0.0059922275096534611 0.0033365536776776734 0 0 0 -0.00088613454428109742 -0.0042339611742421845 0.0043741197995934289 0 0.0043741197995934289 0.0035810854276958626 0 0 0 -0.00016321893663659437 0.004152294582409316 0.001586760972209611 0 0.001586760972209611 0.037093909543399695 0 0 0 0.010311551031452232 0.0078758197627553928 -0.0063408535782715214 0 -0.0063408535782715214 0.064107430202303362 0 0 0 0.017995812491264668 -0.0043289268111805536 -0.0093824545655567804 0 -0.0093824545655567804 0.013158019611780945 0 0 0 0.0022072732001500971 0.0016335835784014284 0.012072486422683559 0 0.012072486422683559 0.017244032845764957 0 0 0 0.0047194041060415991 -0.0010203449353816917 -0.0098806702262621698 0 -0.0098806702262621698 -0.0022674062725833583 0 0 0 -0.00082193780199125988 0.0067269029931076516 -0.020662156358140508 0 -0.020662156358140508 0.020557559502600631 0 0 0 0.0068211156239270654 -0.034117497602792479 -0.010568962819098027 0 -0.010568962819098027 0.0020536862115760335 0 0 0 -0.0080159528478041531 -0.038205419142385719 0.0049600024483349159 0 0.0049600024483349159 0.00047092909214377365 0 0 0 -0.0094336225125604793 -0.031332077570258604 0.0060952294715493991 0 0.0060952294715493991 0.0010912642266362321 0 0 0 -0.007560203335905586 -0.062293355198611323 0.0024156211823908522 0 0.0024156211823908522 0.024787810299624707 0 0 0 -0.0093763862247466523 -0.010260116682489107 0.00036763800555214554 0 0.00036763800555214554 -0.00014986642788139548 0 0 0 -0.0026024957775926116 -0.008264160505119994 -0.0079604160750100933 0 -0.0079604160750100933 0.0045239769898087756 0 0 0 -0.00093504587882781154 -0.0035622711810687404 0.0061519401729726517 0 0.0061519401729726517 0.0024621734950751335 0 0 0 -0.00027502442149840607 0.00041650303105522646 -0.00061105200147479333 0 -0.00061105200147479333 -0.031076908195468933 0 0 0 -0.0076651012911034266 -0.0092807393173699321 0.0039249921382214425 0 0.0039249921382214425 -0.0032066264012449407 0 0 0 -0.0031218414296537182 -0.017601218742309223 -0.011499579360689401 0 -0.011499579360689401 0.011444478979764944 0 0 0 -0.001539184940636075 -0.00243202846281074 0.00093053138581736586 0 0.00093053138581736586 -0.008018553416049002 0 0 0 -0.0026126454697149356 -0.011773666881042533 0.028819999883872793 0 0.028819999883872793 0.0016821996750966406 0 0 0 -0.0025228668014866118 -0.013668146786562779 0.030903481097734664 0 0.030903481097734664 -0.00046470345692251058 0 0 0 -0.0035332125608712184 -0.016428563419104869 -0.017902148413180052 0 -0.017902148413180052 0.0020626528534170574 0 0 0 -0.0035914776414218696 0.014389307108689032 -0.042362364122228005 0 -0.042362364122228005 0.076674508951699527 0 0 0 0.022765954015097137 -0.0035631317306201961 0.0014985587430169152 0 0.0014985587430169152 -0.0064514772815860068 0 0 0 -0.0025036522530515501 -0.034634690133906687 -0.0067777658762265824 0 -0.0067777658762265824 0.0017738156718913878 0 0 0 -0.0082152186155037832 0.00035366172706641219 2.9013739050065546e-05 0 2.9013739050065546e-05 -0.00033257195551672503 0 0 0 5.2724428873940354e-06 0.00068763492761703127 0.0062124055891157326 0 0.0062124055891157326 0.070556794208957552 0 0 0 0.017811107284143146 0.010436702089552514 8.6015226140823131e-05 0 8.6015226140823131e-05 0.047323206909160857 0 0 0 0.014439977249678288 0.0065154313622095561 -0.0016179465981907004 0 -0.0016179465981907004 0.021926487289369856 0 0 0 0.0071104796628949085 0.00045331873008525037 8.083816424194601e-07 0 8.083816424194601e-07 -0.00052899447343524031 0 0 0 -1.8918935837497486e-05 -0.00032143610882756261 0.00017511536789927007 0 0.00017511536789927007 0.00044732405001663984 0 0 0 3.1471985297352575e-05 0.00046231435960608636 -0.0066368507926407071 0 -0.0066368507926407071 0.039973522782990489 0 0 0 0.010108959285649366 -0.00041253618439784923 -0.00024203217868756788 0 -0.00024203217868756788 0.00063655532273099169 0 0 0 5.6004784583230105e-05 -0.0054830610496986757 0.00060560891657172097 0 0.00060560891657172097 -0.0054969689696173418 0 0 0 -0.0027450075048290044 -0.015837249493398674 -0.011297551014115795 0 -0.011297551014115795 0.0015724042616856136 0 0 0 -0.003566211307928285 -0.030672476349028161 0.0056038333028617035 0 0.0056038333028617035 0.0032188583258436765 0 0 0 -0.0068634045057961238 -0.028024603819697791 -0.014588691937283738 0 -0.014588691937283738 0.0029677745491439866 0 0 0 -0.0062642073176384372 -0.0075942014427815337 -0.0021091001867697152 0 -0.0021091001867697152 -0.0086263346087908175 0 0 0 -0.0040551340128930869 -0.017894430844388909 0.02603489039136786 0 0.02603489039136786 -0.0063189139284300921 0 0 0 -0.0060533361932044727 -0.011970210607332388 -0.020493927105842302 0 -0.020493927105842302 -0.00055282271896928137 0 0 0 -0.0031307583315753895 0.00086851058998899111 -0.0035504035020026137 0 -0.0035504035020026137 0.030141131950543465 0 0 0 0.0077524106351331556 0.0033716058890691514 -0.0015432684924381879 0 -0.0015432684924381879 0.055471555308585774 0 0 0 0.014710790299413731 -0.017454455092425207 0.0049728519891889117 0 0.0049728519891889117 0.02620994547145869 0 0 0 0.0021888725947583759 -0.027720893555011283 0.0025893093121268952 0 0.0025893093121268952 0.0032782955192703495 0 0 0 -0.00611064950893523 -0.012328607321451968 -0.0071464472440481812 0 -0.0071464472440481812 0.021658224668706427 0 0 0 0.0023324043368136149 -0.0028875386894883226 0.0030558287094704789 0 0.0030558287094704789 0.042604106484848192 0 0 0 0.0099291419488399396 -0.013608634848968515 -0.015254499955999201 0 -0.015254499955999201 0.0047169633309039338 0 0 0 -0.002222917879516173 -0.0023352743501804107 0.0053305522626793779 0 0.0053305522626793779 -0.00090962261858610477 0 0 0 -0.00081122424219162714 -0.013183618034397215 -0.019647674263217674 0 -0.019647674263217674 0.0049616935273610885 0 0 0 -0.0020554811267590734 -0.023337455369631277 0.023553789046806717 0 0.023553789046806717 -0.0019789339501778969 0 0 0 -0.0063290973299521269 -0.011640708719799733 -0.0012409012492378968 0 -0.0012409012492378968 0.0090184304007721594 0 0 0 -0.00065556957975690389 -0.0055954463039265545 -0.0011374602085759342 0 -0.0011374602085759342 0.011033746622067298 0 0 0 0.0013595750795351719 -0.018294896587594294 0.004170926156625749 0 0.004170926156625749 -0.0014500456525895706 0 0 0 -0.0049362355600459686 -0.019813124221908514 -0.00074815406068211993 0 -0.00074815406068211993 0.018290844662777979 0 0 0 -0.00038056988978262679 0.011910798558977212 -0.0124118611978489 0 -0.0124118611978489 0.01111782515222029 0 0 0 0.005757155927799365 -0.015113334125413049 -0.011718456619357914 0 -0.011718456619357914 0.0036302522214687258 0 0 0 -0.0028707704759860803 0.032387576492525688 -0.0095038815590862968 0 -0.0095038815590862968 0.012011984610027171 0 0 0 0.011099890275638208 -0.0092875252422011945 -0.0035888836358477505 0 -0.0035888836358477505 0.020769533058480227 0 0 0 0.0028705019540697652 -0.01518626954992805 -0.0059173852992018272 0 -0.0059173852992018272 0.0026742694016844148 0 0 0 -0.0031280000370609296 -0.034020882102622468 0.0044082327260224919 0 0.0044082327260224919 -0.00085847687708126173 0 0 0 -0.0087198397449259266 -0.017114845250693924 -0.0034217296923049886 0 -0.0034217296923049886 0.022176479511482657 0 0 0 0.0012654085651971755 -0.017051257262597833 -0.0025863533587883389 0 -0.0025863533587883389 0.027564293580454972 0 0 0 0.0026282590794642832 0.024372942602535946 0.03387700443613513 0 0.03387700443613513 0.090167169812172959 0 0 0 0.028635028103677226 -0.0049157828247181207 -0.0058972133833210608 0 -0.0058972133833210608 0.10279590240488054 0 0 0 0.024470029895040608 0.026231185452206374 0.011512639744852549 0 0.011512639744852549 0.038551438463482413 0 0 0 0.016195655978922141 -0.002098231147721917 0.013658112487499277 0 0.013658112487499277 0.023118959593890528 0 0 0 0.0052551821115421615 -0.039114804842921513 -0.0054313818894294241 0 -0.0054313818894294241 0.00063667805881517658 0 0 0 -0.0096195316960266952 -0.018481385925568292 0.0042295068509868999 0 0.0042295068509868999 -0.0023439073856627544 0 0 0 -0.0052063233278077624 -0.042540277960181977 -0.0073703378488912188 0 -0.0073703378488912188 -0.0067354641240894436 0 0 0 -0.012318935521067857 -0.034167895633271307 0.0032115626811697251 0 0.0032115626811697251 -0.0037565803849566636 0 0 0 -0.0094811190045569916 0.0029266461305395286 0.0020491141259041251 0 0.0020491141259041251 -0.0073773335773969061 0 0 0 -0.0011126718617143457 -0.046892806325005976 -0.002371293169448372 0 -0.002371293169448372 -0.00039074959427693877 0 0 0 -0.011820888979820731 -0.041878045112370546 -0.0025048972670120746 0 -0.0025048972670120746 -0.0087432426990651877 0 0 0 -0.012655321952858933 -0.065516848380638523 0.0015272051450472709 0 0.0015272051450472709 0.00024427766298545147 0 0 0 -0.016318142679413263 -0.058715361367767532 0.0015913956495458464 0 0.0015913956495458464 -0.011735780948948827 0 0 0 -0.017612785579179096 -0.024188120879414708 -0.0072285691071501956 0 -0.0072285691071501956 0.011004417540940767 0 0 0 -0.0032959258346184836 -0.0014663065518773196 0.0019922228737451241 0 0.0019922228737451241 -0.0055496958596801954 0 0 0 -0.0017540006028893785 0.027374974047771505 0.017339207292734193 0 0.017339207292734193 0.010977666428810817 0 0 0 0.0095881601191455945 -0.0035697467349277839 -0.0023366784291488363 0 -0.0023366784291488363 0.034537764419663552 0 0 0 0.0077420044211839456 0.0045332813609858368 0.018387399603351499 0 0.018387399603351499 0.035473843754870074 0 0 0 0.010001781278963983 -0.012269216780478986 -0.014004743802814613 0 -0.014004743802814613 0.015550573676061663 0 0 0 0.00082033922389565528 -0.0026988541619656576 0.0014304841633783205 0 0.0014304841633783205 -0.00047276964855947728 0 0 0 -0.00079290595263145018 0.001274703586160765 -0.0049056288420756822 0 -0.0049056288420756822 -0.0078400105171620178 0 0 0 -0.0016413267327502021 0.0019478694846715521 0.0053759745910193502 0 0.0053759745910193502 -0.0042589005500409706 0 0 0 -0.00057775776634235452 -0.0019509419478046439 -0.0010791387225044247 0 -0.0010791387225044247 -0.00047820022642506096 0 0 0 -0.00060728554355748174 -0.0064323851680843439 0.0032193114242241305 0 0.0032193114242241305 -0.0072542153135576604 0 0 0 -0.0034216501204105201 -0.0062222236183246404 -0.0099758824835701476 0 -0.0099758824835701476 -0.010266193162117299 0 0 0 -0.0041221041951104986 -0.044400892389414984 -0.0046229037282713688 0 -0.0046229037282713688 -0.014773754966615107 0 0 0 -0.014793661839007525 -0.061890686887606142 0.0045663741276482468 0 0.0045663741276482468 -0.020592223971538252 0 0 0 -0.0206207277147861 -0.069532599371515888 0.0049854628884027103 0 0.0049854628884027103 -0.0094330648794523769 0 0 0 -0.019741416062742066 -0.050025005513883815 -0.0048303349964159241 0 -0.0048303349964159241 -0.0070084669238601859 0 0 0 -0.014258368109436002 -0.013004703439189344 -0.017709832224606203 0 -0.017709832224606203 0.006796374622522694 0 0 0 -0.0015520822041666243 -0.018510836532728989 0.0043945175934862685 0 0.0043945175934862685 0.00070839486481562297 0 0 0 -0.0044506104169783458 -0.016269202264222599 -0.01179687724360003 0 -0.01179687724360003 0.0078569873238022725 0 0 0 -0.0021030537351050815 -0.01460469742457518 -0.011470305251464363 0 -0.011470305251464363 0.0037602794738689216 0 0 0 -0.0027111044876765439 -0.014372664987912006 0.0036901665127236569 0 0.0036901665127236569 0.0011294481120619933 0 0 0 -0.0033108042189625032 -0.0066278798046867137 0.0040277853763372893 0 0.0040277853763372893 -0.0026130419642663282 0 0 0 -0.0023102304422382607 -0.0065430918219521695 0.0045868185082651248 0 0.0045868185082651248 -0.0023184946299567785 0 0 0 -0.0022153966129772372 -0.015874676057569079 -0.017853605591463609 0 -0.017853605591463609 0.064199535141459763 0 0 0 0.012081214770972667 0.01549948635568809 -0.00068779189183519607 0 -0.00068779189183519607 0.18394897732493115 0 0 0 0.04986211592015484 -0.031977423301466523 -0.0039375481119518774 0 -0.0039375481119518774 0.0080290943391274905 0 0 0 -0.0059870822405847478 -0.008750294343774237 -0.0018557675815903153 0 -0.0018557675815903153 0.019445847439240049 0 0 0 0.0026738882738664566 -0.016712199763623439 -0.0077386585366559513 0 -0.0077386585366559513 0.013532197170128213 0 0 0 -0.00079500064837383089 -0.0062533578348206061 0.0051510365264294481 0 0.0051510365264294481 0.002917317190790622 0 0 0 -0.00083401016100749688 -0.0032940566991828124 0.022283195926526833 0 0.022283195926526833 0.018628055196085569 0 0 0 0.0038334996242257446 -0.019730230222398337 -0.0090564238969593758 0 -0.0090564238969593758 -0.00088994240822748427 0 0 0 -0.0051550431576565248 0.012210682528825942 -0.014531805984104092 0 -0.014531805984104092 0.028714531959159822 0 0 0 0.010231303621996438 -0.0035283577329422028 -0.0017986690807001784 0 -0.0017986690807001784 0.0075147019459486999 0 0 0 0.00099658605325161909 -0.029010366228183426 0.018521674898098528 0 0.018521674898098528 0.001309072667575073 0 0 0 -0.0069253233901519495 -0.010164042777440985 -0.0170510741152331 0 -0.0170510741152331 0.01189512698246209 0 0 0 0.00043277105125527626 -0.0036402598351276128 -0.013673566835558048 0 -0.013673566835558048 0.012105422215294759 0 0 0 0.0021162905950418143 -0.011128893505156001 -0.0026366579617657787 0 -0.0026366579617657787 -0.0081257621201923369 0 0 0 -0.0048136639063370845 -0.0081516367526680289 -0.0056911797003200426 0 -0.0056911797003200426 0.022129725481465856 0 0 0 0.0034945221821994776 -0.0060979151147415415 -0.0064595168736149679 0 -0.0064595168736149679 -0.0076393096498088495 0 0 0 -0.0034343061911375969 -0.010180905502975957 -0.0055120556974315449 0 -0.0055120556974315449 -0.030426476530231547 0 0 0 -0.010151845508301921 -0.021581706434386509 0.0049043561572310306 0 0.0049043561572310306 -0.002770792678790439 0 0 0 -0.0060881247782942367 -0.018112622852615289 0.0048336430933245316 0 0.0048336430933245316 -0.0031272567171153221 0 0 0 -0.0053099698924326576 -0.016650196606104554 -0.00018278621342222769 0 -0.00018278621342222769 0.015735004169881002 0 0 0 -0.00022879810905588726 -0.020852086228526745 -0.0055227612318642649 0 -0.0055227612318642649 0.018966090659579327 0 0 0 -0.00047149889223685459 -0.013044153374596469 0.0032943700819585576 0 0.0032943700819585576 -0.0022924468086694023 0 0 0 -0.0038341500458164719 -0.011200525791987595 0.004300080370206856 0 0.004300080370206856 0.0015865705374259707 0 0 0 -0.0024034888136404069 -0.012795200807348375 0.003571753866607524 0 0.003571753866607524 0.0010252350921337878 0 0 0 -0.0029424914288036456 -0.0065855062356036664 0.0048961906133887512 0 0.0048961906133887512 -0.028009328782867549 0 0 0 -0.0086487087546178454 -0.0023695983116477637 0.0055681441221107908 0 0.0055681441221107908 -0.014139271642168272 0 0 0 -0.0041272174884540436 -0.0026919313526891087 -0.010167825640223366 0 -0.010167825640223366 -0.015038608751621746 0 0 0 -0.0044326350260777136 -0.0064485660730939365 -0.0094590384031680574 0 -0.0094590384031680574 -0.027237908622629814 0 0 0 -0.0084216186739309584 0.00072300072471342264 -0.017284414856878538 0 -0.017284414856878538 0.063733499903033175 0 0 0 0.016114125156936644 -0.0011882510475904606 0.015228146260318987 0 0.015228146260318987 -0.0047485074979904951 0 0 0 -0.0014841896363948504 -0.00092633189296398299 -0.0028229151675241981 0 -0.0028229151675241981 -0.0049729188372928945 0 0 0 -0.0014748126825643304 -0.0012378596450122736 -0.012319998016754319 0 -0.012319998016754319 -0.0060581044081660096 0 0 0 -0.0018239910132946124 -0.0012187426077514552 0.0038823002840020493 0 0.0038823002840020493 -0.0070368521963026787 0 0 0 -0.0020638987010133114 -0.031401546888733867 0.024494200715188236 0 0.024494200715188236 -0.0022476835856570787 0 0 0 -0.0084123076185977919 -0.011967635676887856 -0.019922795625620698 0 -0.019922795625620698 0.0052070882931500861 0 0 0 -0.0016901368459344424 -0.0056716623259095988 -0.016276835276613555 0 -0.016276835276613555 0.0070949055262250482 0 0 0 0.00035581080007895949 -0.013954118155423972 -0.001663263684422725 0 -0.001663263684422725 0.022367472656488342 0 0 0 0.0021033386252660943 -0.00088716014265255438 0.0093710770360053153 0 0.0093710770360053153 -0.017951151992578573 0 0 0 -0.004709578033808004 0.00016699492383165371 -0.0013196585519164861 0 -0.0013196585519164861 -0.00180975856531429 0 0 0 -0.00041069091037071459 0.0001868909086768511 0.0017168043546802458 0 0.0017168043546802458 -0.0024614443436359323 0 0 0 -0.00056863835873999236 -0.0013486243049314339 -0.0076468893054553178 0 -0.0076468893054553178 -0.016484317654052338 0 0 0 -0.0044582354897458876 -0.014013285919326102 -0.0042687502814483663 0 -0.0042687502814483663 -0.017077229425742524 0 0 0 -0.0077726288362671148 0.016345827802630643 -0.015650206236235198 0 -0.015650206236235198 0.0038425212080654275 0 0 0 0.0050470872526740332 0.0097256151604424995 0.00062695347564437065 0 0.00062695347564437065 0.032243911964233152 0 0 0 0.010492381781168916 0.014685362983615058 -0.0035261107083151277 0 -0.0035261107083151277 0.061793924677965295 0 0 0 0.019119821915395074 -0.0040393385702677531 0.0045204849831332874 0 0.0045204849831332874 -0.0034675883616328736 0 0 0 -0.0018767317329751575 -0.050578198510027206 0.022906340939743336 0 0.022906340939743336 0.00150637481874627 0 0 0 -0.012267955922820151 -0.051503247261509566 0.019610299011470659 0 0.019610299011470659 -0.0010336805400683602 0 0 0 -0.013134231950394426 -0.014051383788007556 -0.005686937208890519 0 -0.005686937208890519 -0.0060760710743616962 0 0 0 -0.005031863715592313 -0.012121186638075333 0.00069398558226763021 0 0.00069398558226763021 0.0070323601831824116 0 0 0 -0.0012722066137232286 -0.017681562536227498 -0.01116238451817822 0 -0.01116238451817822 0.0072476315725083021 0 0 0 -0.002608482740929792 -0.014345351153609916 -0.013179242770321578 0 -0.013179242770321578 0.014014379904583693 0 0 0 -8.2742812256565192e-05 -0.031359270797054251 0.024055130116507256 0 0.024055130116507256 -0.0026389878856249993 0 0 0 -0.0084995646706698125 -0.011579265129251115 -0.017660397883877244 0 -0.017660397883877244 0.0069040598450147428 0 0 0 -0.0011688013210591208 -0.012659567875737299 -0.018330429666742531 0 -0.018330429666742531 0.0061976992858494562 0 0 0 -0.0016154671474719606 -0.041705498136723522 0.0026206082479327346 0 0.0026206082479327346 -0.0036925737872699959 0 0 0 -0.01134951798099838 -0.058226907436542186 -0.0071909379859581828 0 -0.0071909379859581828 -0.0066888874334939327 0 0 0 -0.016228948717509031 -0.053002277710716403 -0.0091845278155609274 0 -0.0091845278155609274 -0.00024934860830530515 0 0 0 -0.013312906579755418 -0.03934571039786932 0.0036882861701886091 0 0.0036882861701886091 -0.00028156993739361126 0 0 0 -0.0099068200838157445 -0.014292584026728597 -5.8366683785500677e-05 0 -5.8366683785500677e-05 0.010407428466937305 0 0 0 -0.0009712888899478145 -0.047377241445850315 0.018855429775252341 0 0.018855429775252341 -0.0027222544837526286 0 0 0 -0.012524873982400653 -0.004290698209417132 -0.015515433393865796 0 -0.015515433393865796 0.011195191656047321 0 0 0 0.0017261233616575056 -0.0043695473000988083 -0.01575270471506135 0 -0.01575270471506135 0.0094973896208976338 0 0 0 0.001281960580199637 -0.028513508916519534 -0.016266517673224345 0 -0.016266517673224345 0.0057894502788224944 0 0 0 -0.0056810146594242078 -0.015425504459211658 -0.0049611138425120493 0 -0.0049611138425120493 -0.010401283440458375 0 0 0 -0.00645669697491753 -0.0013913228199264535 -0.010681493744539526 0 -0.010681493744539526 -0.0045756617504823377 0 0 0 -0.0014917461426021961 -0.011996729634105384 -0.0023644719471970724 0 -0.0023644719471970724 0.0068841104162246508 0 0 0 -0.0012781548044701885 -0.034239219260413088 0.0053307273588493569 0 0.0053307273588493569 -0.0022612986759951393 0 0 0 -0.0091251294841020597 -0.052381964913770715 0.029943175761038221 0 0.029943175761038221 0.0096931328853257503 0 0 0 -0.010672208007111314 -0.032982790825978825 -0.013517827997320458 0 -0.013517827997320458 0.0059724431274001955 0 0 0 -0.006752586924644699 -0.0072016559747236364 0.027487787893527793 0 0.027487787893527793 0.0030605463391898402 0 0 0 -0.0010352774088832895 -0.021828041850639354 -0.014769563152807086 0 -0.014769563152807086 -0.0027728436598790512 0 0 0 -0.0061502213776295465 -0.0021648486022431968 0.032034262766518218 0 0.032034262766518218 0.0036019947376684236 0 0 0 0.00035928653385630671 -0.031855328491159379 0.0046475198539222967 0 0.0046475198539222967 7.5907952847953375e-05 0 0 0 -0.0079448551345778669 -0.01324006400501551 0.0016694104728192669 0 0.0016694104728192669 0.0047348068557880648 0 0 0 -0.0021263142873068617 -0.028024849436977417 -0.014519595379651085 0 -0.014519595379651085 0.0022756841091997604 0 0 0 -0.0064372913319444836 -0.0029129488439255703 0.0076041430202908322 0 0.0076041430202908322 0.0046010552472847896 0 0 0 0.00042202660083975538 -0.0040403327577134274 -0.011502747392345525 0 -0.011502747392345525 0.013715736224614195 0 0 0 0.0024188508667252751 -0.012104286611804051 0.0024146126925741998 0 0.0024146126925741998 0.00046449156106289063 0 0 0 -0.0029099487626852924 0.00093952568715027773 0.00051369552816593611 0 0.00051369552816593611 -0.00063860584192898528 0 0 0 7.5229961305156579e-05 -0.0043469249029350898 0.0024255555716603538 0 0.0024255555716603538 -0.0020510724915370204 0 0 0 -0.0015994993486179165 -0.00057147498680731879 -0.011925224565441206 0 -0.011925224565441206 -0.0046949005917178432 0 0 0 -0.001316593894631346 -0.00015360942684583545 -0.0055699069537809565 0 -0.0055699069537809565 -0.0034601256008595094 0 0 0 -0.00090343375692625294 -0.00039734796836965458 0.0065266051184453833 0 0.0065266051184453833 0.0031850841542366837 0 0 0 0.0006969340464668683 0.00066241197075866953 -0.00037532618142865903 0 -0.00037532618142865903 -0.00040644147545743081 0 0 0 6.3992623825392947e-05 0.0012137470187478794 0.013724798734359611 0 0.013724798734359611 0.0024735874141930125 0 0 0 0.00092183360823527849 -0.0032170051981181835 -0.0017518130108902241 0 -0.0017518130108902241 -0.0014475452629016949 0 0 0 -0.0011661376152550806 -0.014881037872759434 -0.0065338455563893338 0 -0.0065338455563893338 -0.011681292151350831 0 0 0 -0.0066405825060275314 -0.016270597957005445 -0.0069880226157359848 0 -0.0069880226157359848 0.0061383732383446521 0 0 0 -0.0025330561796652051 -0.019282172295956135 -0.0075961221957744109 0 -0.0075961221957744109 0.0053400506870234787 0 0 0 -0.0034855304022331224 -0.0094220292951977622 -0.0019337191124360054 0 -0.0019337191124360054 -0.015178459814413146 0 0 0 -0.0061501222774026729 -0.0097504415234801745 -0.00098286840457262326 0 -0.00098286840457262326 -0.014351971011540898 0 0 0 -0.0060256031337552474 -0.0043586034261191503 0.016965624374170575 0 0.016965624374170575 0.049237631506064194 0 0 0 0.011219757019986273 -0.018739045422703927 -0.012687302455505017 0 -0.012687302455505017 0.0032958252543655517 0 0 0 -0.0038608050420845981 -0.01978101608328859 -0.017942780416095185 0 -0.017942780416095185 0.001112186726373296 0 0 0 -0.0046672073392288183 -0.025342805178287665 0.0034266491473020273 0 0.0034266491473020273 0.0016419829137940024 0 0 0 -0.0059252055661234071 -0.05919328690686726 0.018549695752794526 0 0.018549695752794526 0.0025571713255687634 0 0 0 -0.014159028895324666 -0.047748822463981433 0.02775928557205587 0 0.02775928557205587 0.022686218680950443 0 0 0 -0.0062656509457576504 0.00010882830223373635 0.015932734222701826 0 0.015932734222701826 0.032276494018400673 0 0 0 0.0080963305801586075 -0.012797992686628318 -0.006486561635705386 0 -0.006486561635705386 0.0033887611653379279 0 0 0 -0.0023523078803226183 -0.014630552316396483 -0.0084132363361748737 0 -0.0084132363361748737 0.00026809327425458829 0 0 0 -0.0035906147605354322 0.01577127214456512 0.019927031509861946 0 0.019927031509861946 0.03288830101126286 0 0 0 0.012164893288956993 -0.032392892054896788 -0.012297758139242942 0 -0.012297758139242942 0.010616894965631174 0 0 0 -0.0054439992723163966 -0.038411047845156775 -0.0078915307919436017 0 -0.0078915307919436017 0.0010046715172132292 0 0 0 -0.0093515940819858465 0.00084746091633215032 0.013685860574748351 0 0.013685860574748351 0.023700386661828443 0 0 0 0.0061369618945401536 0.0089488995226263326 0.016254898997000791 0 0.016254898997000791 0.01822421663922872 0 0 0 0.0067932790404637679 -0.019527984442706203 -0.0090890405223638115 0 -0.0090890405223638115 0.011246606824732164 0 0 0 -0.002070344404493496 -0.012636239564506218 -0.00061645947240448887 0 -0.00061645947240448887 0.0054401926485748717 0 0 0 -0.0017990117289828386 -0.012134495359905835 0.00011109548423338979 0 0.00011109548423338979 0.010197266764515 0 0 0 -0.00048430714884770826 -0.011811877341118446 0.00068240546971546018 0 0.00068240546971546018 0.017660266342838741 0 0 0 0.0014620972504300802 0.010826540188012213 0.014191046503193361 0 0.014191046503193361 0.055947680576968306 0 0 0 0.016693555191245157 -0.020861454976107419 -0.0041190559041709429 0 -0.0041190559041709429 0.00015144210538342584 0 0 0 -0.00517750321768079 -0.031842653089516525 0.0058466178781580395 0 0.0058466178781580395 0.0001574789758840827 0 0 0 -0.0079212935284080979 -0.0069441773459332275 0.0038388096354919654 0 0.0038388096354919654 -0.0038884592670513918 0 0 0 -0.0027081591532461548 0.032764566405726891 0.010998665006248465 0 0.010998665006248465 0.030702036100314078 0 0 0 0.01586665062651027 -0.012282594565821536 -0.0047528623537685388 0 -0.0047528623537685388 -0.010866851805788946 0 0 0 -0.0057873615929026345 -0.023695240924118566 -0.017244151276601633 0 -0.017244151276601633 -0.002005851349305976 0 0 0 -0.0064252730683561354 -0.039019038480626891 -0.014747023220312842 0 -0.014747023220312842 -0.00080699392830316241 0 0 0 -0.0099565081022325135 -0.016180033782996942 -0.0065058160010656452 0 -0.0065058160010656452 0.021628154183692516 0 0 0 0.0013620301001738971 
</DataArray>
<DataArray type="Float64" Name="cross_section_updated" format="ascii">
0.0010044999202250724 0.0010112964259380945 0.0010158360227172964 0.0010204394279217553 0.0010255323827248451 0.001031407606132071 0.0010382340671803659 0.001045637725348555 0.0010536053523932769 0.0010611690283341883 0.0020168889467875482 0.0020441715232048714 0.0020639561095449547 0.0020828980812015985 0.0021023891641103049 0.0021226211925968099 0.0021438180585347561 0.0021652180327056988 0.0021867466025532927 0.0022073538068362983 1 1 1 1 1 1 1 1 1 1 1 1 1 1 1 1 1 1 1 1 1 1 1 1 1 1 1 1 1 1 1 1 1 1 1 1 1 1 1 1 1 1 1 1 1 1 1 1 1 1 1 1 1 1 1 1 1 1 1 1 1 1 1 1 1 1 1 1 1 1 1 1 1 1 1 1 1 1 1 1 1 1 1 1 1 1 1 1 1 1 1 1 1 1 1 1 1 1 1 1 1 1 1 1 1 1 1 1 1 1 1 1 1 1 1 1 1 1 1 1 1 1 1 1 1 1 1 1 1 1 1 1 1 1 1 1 1 1 1 1 1 1 1 1 1 1 1 1 1 1 1 1 1 1 1 1 1 1 1 1 1 1 1 1 1 1 1 1 1 1 1 1 1 1 1 1 1 1 1 1 1 1 1 1 1 1 1 1 1 1 1 1 1 1 1 1 1 1 1 1 1 1 1 1 1 1 1 1 1 1 1 1 1 1 1 1 1 1 1 1 1 1 1 1 1 1 1 1 1 1 1 1 1 1 1 1 1 1 1 1 1 1 1 1 1 1 1 1 1 1 1 1 1 1 1 1 1 1 1 1 1 1 1 1 1 1 1 1 1 1 1 1 1 1 1 1 1 1 1 1 1 1 1 1 1 1 1 1 1 1 1 1 1 1 1 1 1 1 1 1 1 1 1 1 1 1 1 1 1 1 1 1 1 1 1 1 1 1 1 1 1 1 1 1 1 1 1 1 1 1 1 1 1 1 1 1 1 1 1 1 1 1 1 1 1 1 1 1 1 1 1 1 1 1 1 1 1 1 1 1 1 1 1 1 1 1 1 1 1 1 1 1 1 1 1 1 1 1 1 1 1 1 1 1 1 1 1 1 1 1 1 1 1 1 1 1 1 1 1 1 1 1 1 1 1 1 1 1 1 1 1 1 1 1 1 1 1 1 1 1 1 1 1 1 1 1 1 1 1 1 1 1 1 1 1 1 1 1 1 1 1 1 1 1 1 1 1 1 1 1 1 1 1 1 1 1 1 1 1 1 1 1 1 1 1 1 1 1 1 1 1 1 1 1 1 1 1 1 1 1 1 1 1 1 1 1 1 1 1 1 1 1 1 1 1 1 1 1 1 1 1 1 1 1 1 1 1 1 1 1 1 1 1 1 1 1 1 1 1 1 1 1 1 1 1 1 1 1 1 1 1 1 1 1 1 1 1 1 1 1 1 1 1 1 1 1 1 1 1 1 1 1 1 1 1 1 1 1 1 1 1 1 1 1 1 1 1 1 1 1 1 1 1 1 1 1 1 1 1 1 1 1 1 1 1 1 1 1 1 1 1 1 1 1 1 1 1 1 1 1 1 1 1 1 1 1 1 1 1 1 1 1 1 1 1 1 1 1 1 1 1 1 1 1 1 1 1 1 1 1 1 1 1 1 1 1 1 1 1 1 1 1 1 1 1 1 1 1 1 1 1 1 1 1 1 1 1 1 1 1 1 1 1 1 1 1 1 1 1 1 1 1 1 1 1 1 1 1 1 1 1 1 1 1 1 1 1 1 1 1 1 1 1 1 1 1 1 1 1 1 1 1 1 1 1 1 1 1 1 1 1 1 1 1 1 1 1 1 1 1 1 1 1 1 1 1 1 1 1 1 1 1 1 1 1 1 1 1 1 1 1 1 1 1 1 1 1 1 1 1 1 1 1 1 1 1 1 1 1 1 1 1 1 1 1 1 1 1 1 1 1 1 1 1 1 1 1 1 1 1 1 1 1 1 1 1 1 1 1 1 1 1 1 1 1 1 1 1 1 1 1 1 1 1 1 1 1 1 1 1 1 1 1 1 1 1 1 1 1 1 1 1 1 1 1 1 1 1 1 1 1 1 1 1 1 1 1 1 1 1 1 1 1 1 1 1 1 1 1 1 1 1 1 1 1 1 1 1 1 1 1 1 1 1 1 1 1 1 1 1 1 1 1 1 1 1 1 1 1 1 1 1 1 1 1 1 1 1 1 1 1 1 1 1 1 1 1 1 1 1 1 1 1 1 1 1 1 1 1 1 1 1 1 1 1 1 1 1 1 1 1 1 1 1 1 1 1 1 1 1 1 1 1 1 1 1 1 1 1 1 1 1 1 1 1 1 1 1 1 1 1 1 1 1 1 1 1 1 1 1 1 1 1 1 1 1 1 1 1 1 1 1 1 1 1 1 1 1 1 1 1 1 1 1 1 1 1 1 1 1 1 1 1 1 1 1 1 1 1 1 1 1 1 1 1 1 1 1 1 1 1 1 1 1 1 1 1 1 1 1 1 1 1 1 1 1 1 1 1 1 1 1 1 1 
</DataArray>
<DataArray type="Float64" Name="displacement_divergence" format="ascii">
0.0044908806875355502 0.011286247028484705 0.015823242157174702 0.020427721129971675 0.025522126298344786 0.031397678137840432 0.038222156990786647 0.045624132918971765 0.053597939723840374 0.061132914935013064 0.0084983172016331494 0.022093138972864582 0.031982943828787691 0.041448984686293655 0.051189796567435775 0.061300554258001724 0.071894227441850728 0.082575017589434266 0.093393798968132921 0.10346715545330078 -2.7912312085223739e-06 4.4863611427319549e-06 -6.4922144399896011e-06 -4.5660825193887136e-06 -3.8234723079190308e-05 -2.7080699725358718e-05 -4.1742605356438128e-05 -2.8508659843249063e-05 -3.7310578861532391e-05 -6.4876762045891593e-05 -4.3927944013055129e-06 -5.1185484489955921e-06 -1.3075526505091796e-05 -1.3561049611548633e-05 -1.5361735801979774e-05 -1.0233110737333029e-05 0.00011513077627864083 -1.0430673263804808e-05 -3.4801774929250212e-06 -1.2866673250599633e-05 -2.6285275902383862e-06 -8.1192298772183973e-06 -1.0335374566091131e-05 -1.1699800166893706e-05 9.3251265547870103e-05 -7.8200071033514632e-05 -4.2469232019791837e-05 -2.3096090902940649e-05 -1.4335142478011571e-05 -3.3272394727471726e-05 6.2429484578069614e-06 -9.6041727261673244e-06 -1.280563828316662e-05 -7.4675437442824977e-06 -1.680002442355083e-05 -2.3740010736564185e-05 1.5739363749682803e-05 -3.4219787780939514e-05 0.00011445013515226838 -9.6154996885050733e-06 -6.8453806899680539e-06 1.5906283559589664e-05 1.2967975694322224e-05 -5.4075010747570151e-06 -1.0534808539552923e-05 -1.0817403020052406e-05 -1.2505516717766844e-06 -2.6741461967760345e-06 0.00011984615203533992 -5.4416302579921082e-06 7.4269374182409046e-06 -2.023200586205511e-05 9.0295091392028821e-06 -4.2695072987205916e-06 -2.4895653090463963e-06 -4.4263935515651389e-05 -3.8826690969811367e-06 2.1857860803737444e-05 1.7367429646771568e-05 -1.5236166418311492e-06 -1.5276068129087706e-05 3.6467698544776929e-05 -1.0105882139987033e-05 -7.1428927571580696e-06 -9.0989946156361896e-06 -2.9417204732088196e-05 -4.1167006698371601e-05 -1.5872574300036603e-05 -1.2837013391358036e-05 -3.1525492803034058e-05 -2.4286606596490039e-05 -7.5852034563789317e-06 -2.7753682437213704e-05 -3.9935556660130469e-05 -8.6317041520162017e-06 -4.219579696768786e-06 3.0087684726415364e-05 -4.0152373188782073e-06 -8.675224461774804e-06 -1.3639355792668015e-05 -2.0614241235757894e-05 -4.1257602618996792e-05 -3.0451539906317784e-05 -1.1636831131034401e-05 -1.4068768576493357e-05 -6.3611473471183143e-06 -6.039774960374851e-06 -5.6501491586078301e-06 -2.0114218731438206e-05 -1.1976178387016877e-05 -3.6331796982296104e-06 -5.1577009025627059e-06 -5.7545142333964444e-06 -8.272432308963968e-06 3.6135355434908548e-06 -1.2508946321745842e-05 1.6518726492835345e-05 3.7791224216405985e-05 -9.7591867578481449e-07 -5.7341976112067726e-06 4.3881894235139017e-05 2.9808785602500536e-05 -7.8540809394853248e-06 -9.8975316628059844e-06 1.8018062559601016e-05 4.7771166091898319e-06 1.6155715817024372e-06 -2.1680753346746146e-05 -1.9445425514447016e-05 1.3466961439043575e-05 -8.7921743462194071e-06 2.0455828333192354e-05 -3.3331276013777308e-05 -5.4716885447524867e-05 1.9524127076607549e-06 5.2055515142857261e-05 -5.4273699321586506e-06 -3.7891104838268268e-06 -4.9887462672951812e-06 -5.8173077396054748e-06 -5.421082988445354e-06 -4.5140698805568764e-06 8.6031994701019879e-06 -9.5344303157330322e-06 -7.2017042473554132e-06 -8.3352330888945828e-06 3.9302470953629133e-06 -5.7484413425344097e-05 -1.2566062559486781e-05 -8.8807281563781126e-06 -1.9595126199494422e-05 -4.4671537755204224e-05 -2.7746520610435785e-05 -2.8987772946894084e-05 -4.7907997885804479e-05 -4.3946700504235295e-05 -1.1200920309641179e-05 -3.3170225912117365e-05 1.9684414282964443e-05 5.9804658134658928e-06 6.1392196957117012e-06 -1.6838343788616529e-05 -5.9070076471693387e-06 4.2238686887523451e-06 -1.481130749251137e-05 -1.0910585450245997e-05 -1.4713038031774141e-05 -1.3547520615648957e-05 -1.0583186548879809e-06 -1.9886842288911126e-05 -1.7681534470599962e-05 -8.2138211257926326e-06 -6.0075083455894686e-06 -8.2211031608670708e-06 -8.5942021297829492e-06 -1.3725462493596882e-05 2.4954369595596497e-06 -5.5042061277812698e-06 -1.2185377253499228e-05 1.3384457895086007e-05 -9.7898514872483526e-06 -7.5242155729015446e-06 -4.1238440294543555e-05 -3.0439447236114324e-05 4.8007527160964766e-05 -5.843193155327939e-06 4.731635314561951e-06 -2.3061862532022207e-05 -3.0502074973183735e-05 -4.9289859840075708e-05 -1.381413874560119e-05 -2.7055694138232043e-05 -3.5202183023660043e-05 -2.8811393194140671e-05 -1.5888596860680472e-05 -1.5032407784290982e-05 -1.9962027681496902e-05 -1.1061584658867958e-05 -3.8720468299108593e-06 -1.3264235995233799e-05 -7.3281949219346611e-06 -1.0104808323096303e-05 -1.926161364512688e-05 -1.6670000204409191e-05 -9.0634836613765786e-06 -9.0219472451332909e-06 -1.1460336035607572e-05 1.5663782620333085e-05 3.6510435659435069e-05 8.054107586644442e-07 -5.5025284668769848e-06 -1.0214013567580037e-05 -2.0402831171624242e-05 3.3190655599461437e-06 -1.429986552787865e-05 -1.0459182557112059e-05 -8.8060412337829185e-06 -3.0788635079103947e-05 -4.7317076735516034e-05 -5.2520973280604025e-06 -1.9333343353876502e-05 -2.2971591753310948e-05 -6.2963134722608205e-05 -3.5708787998630165e-05 4.4442782162624361e-05 0.00011944776631881622 -2.0238412539789851e-06 -8.8190746937732729e-06 1.2084847001765791e-05 -1.9345104257300206e-05 -8.0671545863279261e-06 -1.7839327877527906e-05 -1.800820377011582e-05 -5.6260262135753188e-05 -1.5559092193842463e-05 -7.3265308635974292e-06 -8.4657672387143176e-07 -1.2617384434358104e-05 -1.1384923777419771e-06 2.8930444245888186e-06 -2.5172575859438746e-05 -1.2105277436119102e-05 -4.0648780378336585e-05 -9.9260769037725748e-06 -1.1063157947094367e-05 -1.1939753661748334e-05 -9.6726708451317896e-06 -1.2334914268199167e-05 4.1951210651799598e-05 -4.4628242941027198e-06 -8.1542908168831298e-06 -4.2891638742762848e-06 2.6255271787984519e-05 -3.0436351344309154e-05 -6.0186845166685697e-06 -4.8288823630448934e-05 -3.0762539272697056e-05 -3.2325052216066255e-05 -6.7363663037652009e-06 -4.3858784833693205e-06 5.3491561885053452e-06 3.8454001663363547e-06 -4.8609633267874034e-06 -1.7409265351181914e-05 -1.0313705635143491e-05 -6.6584992281886969e-06 4.5760175704051815e-06 -7.9426526705542524e-06 -1.3219413318649783e-05 -9.5577268659891544e-06 -6.6634826542052994e-06 -2.7913857064157236e-05 -2.1261841512358791e-05 -2.565873369245002e-05 -4.0080983781686603e-05 -3.0418492133418916e-05 -1.0878519135615733e-05 4.9295775817936893e-05 -3.0660727627983732e-05 -2.3515455988236279e-05 -1.7786539862905376e-06 -1.6134173372459006e-05 -1.9199791925612872e-05 -3.9031120391363727e-05 -3.9929306924282095e-05 -3.387958494531669e-06 -5.0252571458650128e-06 -1.8057580254886498e-05 -1.8893965304376875e-05 -1.3327167702839559e-05 2.1384000094351444e-05 3.9078563856337497e-05 -1.5883800162854754e-05 -2.4797954429111482e-05 -1.9826149837364111e-05 -3.7037304334370521e-05 -2.4526522014503183e-06 -8.4490629351310106e-06 -7.4842151985413715e-06 -1.49203596035321e-05 -1.8498186351885703e-05 -1.707173460988537e-05 -1.6786626361988753e-05 -2.5876522151348534e-05 -3.8963017988589825e-05 -3.0366103264741024e-05 -2.358009556758179e-05 -1.8790969225733273e-05 -2.4378028616993201e-05 -1.1623019566617648e-05 1.5718786751561808e-05 -3.2060132944167805e-06 -8.1882844208212152e-06 -4.8774141830146278e-06 -1.8736384897267288e-05 -2.3285829736569737e-05 -3.2007877862651123e-06 3.7225578730823677e-06 -3.7623777735081498e-05 1.6257098868759957e-05 -1.4022733344903611e-05 4.0802205434140382e-06 -4.0178001867887674e-05 -2.7044944702788237e-05 4.2904486026534389e-06 -5.8327854846569051e-06 -9.7359030790314513e-06 -4.0228399129287829e-05 -2.7471122302005168e-05 1.1041845844332237e-05 -1.0058382012485085e-05 -1.1790613870563994e-05 -2.2735864300575552e-05 -1.7939589213860552e-05 4.8113372621124418e-07 1.1344654998907756e-06 -1.6290315730575299e-05 -1.4354487281449184e-05 -1.4946082797204772e-05 -1.4595951364748669e-05 -1.0581480660537806e-05 9.6894878076638812e-06 1.2187258913699559e-06 -4.7485414580942381e-06 -1.4778952990167913e-05 -5.6490903154599037e-07 1.6560365792702363e-06 7.5624065990337048e-06 -1.7671148238613795e-05 -9.6279763017533167e-06 -3.1261112868821092e-05 -2.4045445959448726e-05 -6.5425147148073489e-07 2.3103585537213129e-05 4.0635283963399039e-05 1.7250054815181202e-06 4.4063446188494939e-06 -1.6256090987135281e-05 -2.0385971480021037e-05 -1.0797225140710381e-05 -1.447236477995637e-05 -5.1503897769007679e-06 -1.2317590963150131e-05 -9.477045625776951e-06 -1.1409590860412015e-05 -1.2334891841563186e-05 -5.238083090994261e-06 -2.3307173148598641e-06 -5.7570131687554801e-06 -8.5242313550663862e-06 -2.5949937107798693e-05 -2.1014542882208652e-05 1.1414741295805945e-05 -3.8849342944916762e-05 -2.8092772432925136e-05 -1.894076584584058e-05 1.2907183912930502e-05 1.2862466570811195e-05 1.6575945747371161e-07 -1.2177932765849954e-05 -2.6813553831624972e-06 -1.1851786681778861e-05 -2.6786068687032405e-05 -1.9505385207718869e-05 1.4047620633677097e-05 1.7639422905525552e-06 6.5968459361831792e-06 2.1771094990638855e-06 2.7886637182502965e-07 2.3623058357854845e-05 1.3947209376061838e-05 -9.654547422177466e-07 -1.0360953069994509e-05 7.9995157015645232e-06 -6.7679749295341147e-06 -1.7988250647493813e-05 7.8310009929068405e-06 -9.425542062471905e-06 -3.5846189339054928e-05 -1.68270387929851e-05 5.3841576036033057e-08 1.6143372071912327e-05 -6.2480298121922505e-05 -6.597300677289516e-06 -2.676742890091619e-06 -9.3531679073347815e-06 -1.8416746038565771e-05 -1.1605423646466708e-05 -5.0723473455262885e-06 -2.9263760521078243e-06 -7.4138662583981754e-06 -4.0189979533032205e-06 -2.767721761641292e-05 3.147593465527423e-05 -1.2304407330598107e-05 -3.9971380957083364e-06 -2.7340888681240578e-06 -1.0655296338041385e-05 4.1856480395910389e-07 1.9489994425351501e-06 -6.8151037959849042e-07 -3.6217083779825614e-06 -2.3181878392976127e-05 -6.8326113678393883e-06 -3.8915415474490359e-07 -2.6127411703073847e-05 4.1168859983934904e-05 -1.0583654657786521e-05 -9.7320352881206593e-06 -4.3908629065214086e-06 -5.0779925825659085e-06 1.302368181859861e-05 -1.0869003573952759e-05 -1.1358483932673145e-05 -3.4877079648065017e-06 -2.6262222750823687e-05 -2.1084734856448902e-05 -3.2577815758949845e-06 -3.1413918804909426e-05 -4.2853418994748434e-05 -2.0506418051343431e-06 -4.2400991764679008e-07 4.8679933042907543e-06 -1.7892401089727279e-05 4.3817251642669705e-05 -8.1773468964153336e-06 1.152309037087233e-06 2.7806954547549738e-05 -4.6476628507246326e-06 -1.1627595683062503e-05 -7.7999761206069352e-06 -7.6447834765287068e-06 2.3208653287749213e-06 5.7177072562187865e-06 -7.0736260817276042e-06 -4.0556856065202392e-05 -7.2635863437859878e-05 2.6889151927532071e-05 -1.8239274518739019e-05 1.4078944707950931e-05 2.7114511783246978e-05 4.6974668905829789e-05 3.1703085234850758e-05 -1.6503363808943652e-05 -1.6600700657254082e-05 3.1992019648718553e-05 1.2079931235219163e-05 -1.6299214955332953e-06 -7.3950713191453521e-06 -6.4734298476820835e-06 -4.7854338483196718e-06 -8.6989735787136504e-06 -4.474944914350527e-06 -2.3641683825441611e-06 -3.3853344848426916e-06 1.3348031203143803e-05 -5.0219679937832384e-06 -4.1211124588956538e-06 7.4808610231244651e-06 -8.6233351168283457e-06 -6.5553264984863629e-06 -7.0731399226120633e-06 3.6579624565160783e-07 -2.8031380431920588e-05 2.0935353200775236e-05 4.5743158377567597e-06 8.2392375400805215e-06 -1.2573668394453869e-05 -1.6294189513795529e-05 -8.5966041216365102e-05 -4.5526478103967655e-05 -7.7429384669071109e-06 -1.1538483221466242e-05 5.9355189918207141e-06 5.9924142767304297e-06 2.0642083202723763e-06 -3.7741734137333813e-05 -2.6566146367655076e-05 2.8784559857210953e-05 -2.9407776977811142e-05 -2.256534305522706e-05 -1.4623090409542712e-05 3.7638057028279662e-05 2.7575381583398491e-06 -5.3005689427321125e-06 -2.0217332779838611e-05 -1.9420273366136524e-05 -3.5695026555875598e-05 -5.8530740252118484e-05 -1.2896073355208497e-05 1.7013317746810168e-05 3.3738532582073245e-06 7.0349593758445826e-06 4.6116315411911982e-06 1.5774562499044734e-05 1.6455212696624027e-05 -2.209118111037617e-05 -8.5486709664260524e-06 2.303862684095446e-06 2.9635313344030037e-05 -3.2883453743638891e-05 -5.1810794453538166e-05 -2.1734379487631178e-05 2.3119844065288251e-05 -3.5672944335680467e-07 -3.0344002779456694e-05 -2.2805080717572806e-05 -8.8107696725952097e-06 5.4015511667502757e-06 -5.4211733244164252e-06 -9.0081150075996562e-06 -2.5506786049789938e-05 1.2656526864309662e-05 1.3292925493741032e-05 4.5830333747491652e-06 -3.2704006871008093e-06 5.9578727513582764e-07 5.4249491380815664e-06 2.7746762601347456e-05 2.4845567533665798e-07 1.2994125243247256e-05 3.1069522749601741e-07 1.6125639428359117e-06 -2.2748113914782561e-06 1.1787177211165149e-07 -4.5830612065112833e-05 -5.3199595723897665e-05 -6.7920541650097055e-06 -9.7468011885565058e-06 1.5738763481510568e-05 -2.1907272328923862e-05 -1.8991323606700408e-05 -2.2311455199814318e-05 -2.9234073868734929e-05 -2.1591008520908212e-05 -1.6227014742693671e-05 -1.1435464694193723e-05 -1.1914503228579624e-05 -1.1546487874272492e-05 -1.3226536946777482e-05 -9.951596005413222e-06 -1.1695953745112769e-05 -1.6239898042865838e-05 -1.5569486629833824e-05 -4.3911567517875237e-06 -1.9137562937768967e-05 -2.2028901527056231e-05 4.0197866270035829e-06 -4.1535178310921006e-06 -2.7357908374873533e-05 -2.3239968950278197e-05 2.2297647014589468e-05 -2.3163388761030402e-05 -1.2793114065996677e-05 1.1882275969303242e-05 1.3970287313075285e-06 -7.9871967935237036e-07 -4.3121866285062113e-05 -3.0063338374842441e-05 1.0595697735038559e-05 3.3407559398173468e-07 -6.3977927701784696e-06 -2.4691946122408891e-05 -3.5897202649177074e-05 -4.2581426098567703e-06 -4.6815333100079764e-06 -8.1726290862299696e-06 2.4907379093280744e-06 -9.5823606884558728e-06 4.7531206975611755e-05 -1.1885217165631729e-05 -2.6425439668688235e-05 1.6831917981353179e-05 1.7390347763028926e-05 -2.5117068964377656e-05 -3.385967679558617e-07 -3.3861006434193462e-05 -5.7455301763099668e-05 -3.4372530269679954e-05 -5.9512526345147353e-05 -2.7525426120193677e-05 -3.7386556450682038e-05 1.4030773567776743e-06 6.1581065747437312e-06 1.3963175085529952e-05 3.6462109046777919e-05 8.4531274413872452e-06 2.9982401986891296e-05 7.5178848770918909e-06 -7.6487197857625958e-06 7.8816404581706975e-06 5.4471183867334716e-07 7.4691362556830204e-06 -5.2176927275170409e-05 4.5862375914889226e-06 5.0416107746714613e-05 4.630080142449327e-05 1.9582571544077125e-05 -6.4311423497270809e-05 -3.6589393376304117e-05 4.7598667099698521e-06 -3.1048890291005731e-05 -2.0674593204513328e-05 -1.488536996480821e-06 2.6197399520084226e-06 1.399022876353575e-05 -1.2875145153714435e-05 -1.5920216763048947e-05 -1.7049448312603609e-05 -6.1976419356652164e-06 -5.6453443639914013e-06 -9.7970795000783695e-06 -8.7206874808305485e-06 -1.9858902371221052e-05 -1.3732505273478514e-05 -1.9813140548528905e-05 -2.4291411579935381e-05 -3.0850234821517853e-05 -5.4944019590556954e-05 -2.3440957598391146e-05 -1.5598902168385535e-06 -1.6990831069491584e-05 -3.7406962094651885e-05 -5.3030086593101293e-05 -6.0930682940814775e-06 1.4933005554155606e-05 -3.8526420009396569e-05 -7.0620434196808172e-05 -1.661801754236289e-05 -3.1532087389153764e-05 -2.1858776737561331e-05 5.5328769404278133e-05 -4.7095252690267625e-05 -2.9969253994636715e-05 -1.2768006097045419e-05 -1.1769060411126638e-05 6.5300275005444054e-06 -5.1721525373089259e-06 1.6817725942293113e-06 4.9953174929732416e-05 -2.3155989490223899e-05 -6.5699874587433203e-06 4.9563336727571688e-05 -2.7743529588162428e-05 -8.3564811168565886e-05 -4.4871044036838586e-05 7.9523940168733221e-06 -2.9879928031822281e-05 -3.543311794895209e-05 2.3695385132613107e-05 -1.9121784251760737e-05 -8.0232584402677902e-06 3.6384424170004658e-05 -8.315201583815237e-06 -3.4473579556454673e-06 6.0164377907838407e-06 -7.3319855735608073e-06 -2.0013012230853198e-05 1.6750871929043561e-05 -1.2837337438386053e-05 2.1101074243334882e-05 -2.9240076246724034e-05 -1.3669989564614774e-05 -2.3205823880751869e-05 -2.9970013064568564e-05 -3.1882351134242285e-05 -2.6567844506702492e-05 -3.0125337025465465e-05 -1.7563872539481454e-05 -2.0749678726929986e-05 -1.7614233268175946e-05 -1.7095466951473448e-05 -2.4229413041745718e-06 1.2092739013349692e-05 -1.5832650244628102e-06 -2.7713344745307453e-06 -1.9672198032586054e-06 5.0364599581202403e-06 -2.617002879134057e-06 -4.6221162009951614e-05 -8.7411288765945746e-05 4.6202482854144244e-06 6.4464860172680288e-06 -1.8901023685243912e-05 -6.3579593169986562e-06 -1.3096634651696183e-05 -9.9320025980192432e-06 2.7450607092158899e-05 -2.9292442356450447e-05 -2.5907421756559816e-05 -3.5596584014757178e-05 -4.3894975555291087e-05 -4.2537273527954128e-05 2.9177984444873082e-05 1.5127627283403259e-05 -1.5331321037760245e-05 -1.5324142169209691e-05 1.8069766705874573e-06 -2.4440596156236677e-05 1.4370396114706343e-05 -8.4046981508388773e-06 -1.0504676733845695e-05 3.5912517721409279e-05 -7.7727512521817829e-05 -4.8447976373621434e-06 -2.0940220681077225e-05 -2.4433797049573757e-05 1.9678925065105643e-06 -3.3303119450966523e-05 -5.593778977843072e-05 1.8835199819831287e-05 -1.8336164916658978e-05 1.437479343773852e-05 3.1878076166254126e-06 -7.8935496330791491e-07 -2.9426394485098422e-06 -6.4618439213562452e-06 -1.1035573084181584e-05 3.125420591007699e-05 2.8332959692431581e-05 -1.3956701657510061e-05 -1.2822467059885457e-05 3.4573391755590623e-06 -4.6833364235028888e-07 8.2289697396031695e-07 1.6393418017311701e-05 -4.8329352757088193e-06 2.0576465746960978e-05 4.6604777566296537e-06 -2.9128648297097222e-05 -3.304864168707152e-05 -5.7042217486133148e-05 1.2869784071678394e-05 1.5887045920381259e-05 -4.768395798109696e-06 -7.0195755540803442e-06 -5.1059896657655162e-05 -3.1128698154711713e-05 -2.781538940964733e-05 2.3861690421125674e-05 -1.3187318071617446e-05 -7.3247256169987959e-06 -2.1976470727124974e-06 -1.7512685549638885e-05 -1.6684535149527365e-05 1.4299916970111068e-06 1.0009043147847537e-05 -2.6958214269486426e-05 -2.8644118551293706e-05 -4.7819476121065368e-05 -1.7640859713412738e-05 -2.5063528027803584e-05 -2.3618419995787711e-05 -2.0151095466699054e-05 -3.3527834275335982e-06 -3.0895270664780839e-05 -3.5459219651700827e-05 -2.1390580182937775e-05 -1.9175231270825589e-05 -6.1107287222586165e-06 3.9408452798495584e-05 4.5146341731674294e-05 -4.1074295527920102e-05 4.0294139712055527e-05 3.3078536387630707e-05 -1.6380820482948993e-05 -1.0230813566563131e-05 -4.483268796398078e-05 4.3162218048881337e-06 3.633631705937726e-05 -8.7758211698687127e-06 -3.6048709312688295e-05 -6.2543691513359243e-05 -2.3717957344781496e-05 2.5921939262868584e-06 -5.0851819857410346e-06 1.3692660493036339e-05 -3.3304273795101701e-05 -2.8533458439172264e-05 -3.9934070756935244e-05 8.069646988041084e-06 -2.0988958539517389e-05 2.3692938752714658e-05 -3.7677059632552107e-06 -6.7445376806667969e-06 -3.4876846057684425e-05 -6.0492888481245488e-05 -2.7475156512926416e-05 -1.014604366953646e-06 1.0557751622885988e-05 -1.4233349834041216e-05 -9.2185409229281591e-06 -2.0166543587256069e-05 -1.8346393367198946e-05 -7.6749846540131322e-06 -7.3463491724477064e-06 -3.6849570614919233e-05 -6.7320160509957836e-05 -2.2181595828087305e-05 3.6333882202766669e-05 2.6282944503922641e-05 -1.8058616259048399e-05 4.6211858173056484e-05 2.6683231886925462e-06 -9.7713502894600885e-06 2.7764342874658787e-05 4.76668530938019e-05 -3.2222646078234739e-05 -1.854723458355866e-05 -3.0585552520981382e-06 -3.2214526607650309e-05 7.7419234483303554e-06 -4.7683808702401358e-06 -1.2265050876129819e-05 4.1627924903525973e-05 -1.3994141015761543e-05 -5.2736757993549551e-06 -2.2153363607027574e-06 -4.0804734159161169e-07 2.5778877578630597e-05 4.4989531228161719e-05 5.5181830003752196e-06 1.1798510265103999e-05 -2.0548445049781323e-06 1.7052789059817674e-05 -2.0039882119510401e-05 -2.3584056281401218e-05 -1.8900508339763904e-05 -2.344096556186666e-05 -6.5062394439814966e-06 -2.3376146970695462e-06 -6.8756105374600569e-07 -1.9162753227758679e-05 -7.8046035741342982e-06 -3.8479623515902004e-06 -6.5316136742873378e-06 -6.3071670037165121e-06 -8.8330314021773824e-06 -8.9786941035550899e-06 5.6914885037742818e-05 -6.2591306326288755e-06 -2.0538046538759783e-05 1.3181107218294269e-08 4.4527768210358542e-05 3.6099943124195753e-05 1.7776199157237523e-05 -4.7297339593466159e-08 7.8679963243554913e-08 2.5272398214123363e-05 1.4001196145876915e-07 -6.8625187620725103e-06 -8.9155282698207728e-06 -1.7158511264490305e-05 -1.5660518294096141e-05 -1.0137835032232713e-05 -1.513334048301165e-05 -7.8268958289386473e-06 1.9381026587832694e-05 3.67769757485343e-05 5.4721814868959642e-06 -1.5276623772338084e-05 5.8310108420340633e-06 2.4822854872099895e-05 -5.5572946987903827e-06 -2.0280606054790685e-06 -5.1387028168975793e-06 -1.5822743324880786e-05 -1.6389239493922153e-06 3.3989376988379264e-06 -1.2340588900114922e-05 -9.514247244565171e-07 1.4392889819498473e-05 -7.1769261899651939e-06 2.7749725689095494e-05 7.1762548851743956e-06 -7.8200000926522751e-06 -2.1799599362314814e-05 3.1635214129929433e-06 6.5706476986607029e-06 7.1587570259193102e-05 6.1175074737601507e-05 4.048913994730537e-05 1.3137955278855402e-05 -2.4048829240066625e-05 -1.3015808319519413e-05 -3.0797338802669673e-05 -2.3702797511392467e-05 -2.7816796542858669e-06 -2.9552222449551815e-05 -3.1638304882147331e-05 -4.0795356698533169e-05 -4.4031963947947734e-05 -8.2398145865461521e-06 -4.3850015072234465e-06 2.3970400297863869e-05 1.9355011052959743e-05 2.5004453197409958e-05 2.0508480597391013e-06 -1.982264881578903e-06 -4.103316831875583e-06 -1.444394415855418e-06 -1.5182138588938864e-06 -8.5541253010263971e-06 -1.0305260487776156e-05 -3.6984154597518811e-05 -5.1551819286965251e-05 -4.9353540156855185e-05 -3.5645920273590007e-05 -3.880205510416678e-06 -1.1126526042445868e-05 -5.2576343377626767e-06 -6.7777612191914063e-06 -8.2770105474062666e-06 -5.7755761055956508e-06 -5.538491532443098e-06 3.0203036927431675e-05 0.00012465528980038702 -1.4967705601461903e-05 6.6847206846661522e-06 -1.987501620934575e-06 -2.0850254025187365e-06 9.5837490605643009e-06 -1.2887607894141546e-05 2.5578259054991141e-05 2.4914651331290618e-06 -1.7313308475379926e-05 1.0819276281382557e-06 5.2907264876040413e-06 -1.2034159765842659e-05 8.7363054554986149e-06 -8.5857654778440006e-06 -2.5379613770754627e-05 -1.5220311945735597e-05 -1.3274924731081648e-05 -5.7199527263973517e-07 -1.1787472305920801e-06 -9.5853751145411955e-06 -6.0087220341010187e-06 -7.3562285720091148e-06 -2.1621771886544633e-05 -1.0318043721135048e-05 -1.1081587565194278e-05 -2.1054046684827342e-05 4.0285312892341605e-05 -3.7104740909874728e-06 -3.6870317064107653e-06 -4.5599775332365484e-06 -5.1597467525333132e-06 -2.1030769046494462e-05 -4.2253421148358717e-06 8.8952700019718188e-07 5.2583465631652347e-06 -1.1773945084518969e-05 -1.0267272759268732e-06 -1.4215958968502411e-06 -1.1145588724364346e-05 -1.9431572090667791e-05 1.2617718131685036e-05 2.6230954452922335e-05 4.7799554788487673e-05 -4.6918293324378913e-06 -3.0669889807050186e-05 -3.2835579875985926e-05 -1.2579659288980877e-05 -3.1805165343080874e-06 -6.5212068523245155e-06 -2.0685703064139523e-07 -2.1248911676674444e-05 -2.9220033026479061e-06 -4.0386678686797845e-06 -2.8373794952495938e-05 -4.0572371793772565e-05 -3.3282266449388538e-05 -2.4767050209539345e-05 -2.428222224869537e-06 -3.1312184956000955e-05 4.3153084041433303e-06 3.2049014504990231e-06 -1.4202536648560656e-05 -1.6141742437293834e-05 -3.729365356505491e-06 -3.1953870111754793e-06 -2.2812823710255157e-05 -2.6680520017778196e-05 -1.6881467311611882e-05 -2.5881935222081965e-06 -1.5375553444074004e-05 8.9821633464056728e-07 -1.9862137836444655e-05 -5.3157857182671526e-06 -1.6093228329861322e-05 1.0550665020996332e-06 6.0471271668131226e-06 -7.2748719067132356e-06 1.8807490326233633e-07 -3.9987483715451383e-06 -3.2914847365780181e-06 -2.258584392315563e-06 1.7423351161673442e-06 1.5998155956410687e-07 2.3045840205878146e-06 -2.9153440381376409e-06 -1.6601456265068898e-05 -6.3326404491628394e-06 -8.7138260055828168e-06 -1.5375305693506689e-05 -1.5064007834388212e-05 2.8049392549965659e-05 -9.6520126052114863e-06 -1.1668018348072082e-05 -1.4813013915308547e-05 -3.5397572238311586e-05 -1.5664127364393965e-05 2.0240826450396463e-05 -5.880769700806446e-06 -8.9765369013386585e-06 3.0412233222392495e-05 -1.3609998180791019e-05 -2.3378985204964463e-05 1.5342404736350381e-05 1.6983197601159404e-05 -5.1758610112336142e-06 -4.4975293224570861e-06 -1.2107678721192731e-06 3.6552431260751768e-06 4.1733887978112442e-05 -1.2943758044202023e-05 -1.9803233821020292e-05 -6.7703978831153867e-06 3.9666626566276018e-05 -1.4468403982256621e-05 -1.6063182670890348e-05 -2.4891270255581263e-05 3.40507525043468e-06 
</DataArray>
</CellData>
</Piece>
</UnstructuredGrid>
</VTKFile>
