<?xml version="1.0"?>
<VTKFile type="UnstructuredGrid" version="0.1" byte_order="LittleEndian">
<UnstructuredGrid>
<Piece NumberOfPoints="3142" NumberOfCells="1054">
<Points>
<DataArray type="Float64" NumberOfComponents="3" format="ascii">
0.5 0.29999999999999999 0 0.54999999999999993 0.29999999999999999 0 0.54999999999999993 0.29999999999999999 0 0.59999999999999976 0.29999999999999999 0 0.59999999999999976 0.29999999999999999 0 0.6499999999999998 0.29999999999999999 0 0.6499999999999998 0.29999999999999999 0 0.69999999999999984 0.29999999999999999 0 0.69999999999999984 0.29999999999999999 0 0.74999999999999989 0.29999999999999999 0 0.74999999999999989 0.29999999999999999 0 0.79999999999999982 0.29999999999999999 0 0.79999999999999982 0.29999999999999999 0 0.84999999999999987 0.29999999999999999 0 0.84999999999999987 0.29999999999999999 0 0.89999999999999991 0.29999999999999999 0 0.89999999999999991 0.29999999999999999 0 0.94999999999999996 0.29999999999999999 0 0.94999999999999996 0.29999999999999999 0 1 0.29999999999999999 0 0.5 0.69999999999999996 0 0.54999999999999993 0.69999999999999996 0 0.54999999999999993 0.69999999999999996 0 0.59999999999999976 0.69999999999999996 0 0.59999999999999976 0.69999999999999996 0 0.6499999999999998 0.69999999999999996 0 0.6499999999999998 0.69999999999999996 0 0.69999999999999984 0.69999999999999996 0 0.69999999999999984 0.69999999999999996 0 0.74999999999999989 0.69999999999999996 0 0.74999999999999989 0.69999999999999996 0 0.79999999999999982 0.69999999999999996 0 0.79999999999999982 0.69999999999999996 0 0.84999999999999987 0.69999999999999996 0 0.84999999999999987 0.69999999999999996 0 0.89999999999999991 0.69999999999999996 0 0.89999999999999991 0.69999999999999996 0 0.94999999999999996 0.69999999999999996 0 0.94999999999999996 0.69999999999999996 0 1 0.69999999999999996 0 0.40076539126862748 0.34589349467022118 0 0.33277555741076909 0.36432196682010132 0 0.36575549820117997 0.31677992835137742 0 0.38083244760691543 0.38531983672244652 0 0.33277555741076909 0.36432196682010132 0 0.40076539126862748 0.34589349467022118 0 0.56836770495988642 0.3523062350852913 0 0.52289427570932567 0.3932284363388488 0 0.52752007115234678 0.33170632466418198 0 0.52752007115234678 0.33170632466418198 0 0.52289427570932567 0.3932284363388488 0 0.49077833859261139 0.35229981449445641 0 0.10000000000041601 1 0 0.053064897599294662 0.95186845269532028 0 0.10266856499240549 0.95548163909968886 0 0.099999999999814668 0 0 0.10266856499169109 0.044518360900210059 0 0.053064897599215843 0.048131547304697528 0 0.050000000000207989 1 0 0.053064897599294662 0.95186845269532028 0 0.10000000000041601 1 0 0.049999999999899652 0 0 0.099999999999814668 0 0 0.053064897599215843 0.048131547304697528 0 0.24999999999941211 0 0 0.29999999999926641 0 0 0.27499999999933927 0.060310814194988557 0 0.30000000000124832 1 0 0.25000000000104028 1 0 0.27609987656793722 0.94991445621608572 0 0.15720202157091859 0.60665697304410315 0 0.19914261668318661 0.62286739485272158 0 0.16500388252850301 0.66612077714085194 0 0.2236846579037573 0.67380363126050236 0 0.16500388252850301 0.66612077714085194 0 0.19914261668318661 0.62286739485272158 0 0.1247745017231483 0.27198077544791172 0 0.168349569971391 0.28054490850913671 0 0.14223753364722069 0.3341983344262433 0 0 0.75000000000034661 0 0 0.7000000000006934 0 0.049706944316475897 0.72477277076253799 0 0 0.30000000000124832 0 0 0.25000000000104028 0 0.049706944316556423 0.27522722923869108 0 0.59999999999999976 0.29999999999999999 0 0.61959173890754571 0.33832250091341232 0 0.56836770495988642 0.3523062350852913 0 0.5 0.69999999999999996 0 0.43323420005758778 0.6913544522562407 0 0.47913475093885149 0.66010775372412711 0 1 0.14999999999961891 0 0.95391631417672862 0.19584263333809451 0 0.93677536231883773 0.14999999999999089 0 1 0.84999999999982645 0 0.95391631417670719 0.89584263333814784 0 0.93677536231884972 0.85000000000000286 0 1 0.84999999999982645 0 0.93677536231884972 0.85000000000000286 0 0.95386563387742829 0.80414874155775029 0 1 0.14999999999961891 0 0.93677536231883773 0.14999999999999089 0 0.95386563387744361 0.1041487415577465 0 0.90416666666660628 0.9041666666666166 0 0.88088768115933802 0.84674609810493673 0 0.93677536231884972 0.85000000000000286 0 0.90416666666668166 0.20416666666667119 0 0.88088768115941807 0.14674609810479519 0 0.93677536231883773 0.14999999999999089 0 0.1247745017231483 0.27198077544791172 0 0.14223753364722069 0.3341983344262433 0 0.093851963071650835 0.30582068233324772 0 0.5 0.69999999999999996 0 0.45582236402875981 0.73896743678908217 0 0.43323420005758778 0.6913544522562407 0 0.55000000000173355 1 0 0.50000000000205869 1 0 0.52122150208832174 0.94089974453840242 0 0.49999999999869432 0 0 0.5499999999988151 0 0 0.52375890611712683 0.059318771819432882 0 0.54999999999999993 0.29999999999999999 0 0.59999999999999976 0.29999999999999999 0 0.56836770495988642 0.3523062350852913 0 0.50202631463681879 0.87892870825713787 0 0.44003836461056539 0.88093474584252718 0 0.45677673713123867 0.84253684404072415 0 0.33403534827021109 0.84402799729020661 0 0.35864759629805099 0.87963482415279515 0 0.30864387279288652 0.89906554525974958 0 0.53245488764484505 0.55078124999999989 0 0.47793794143994173 0.52940715638744962 0 0.53330375813596242 0.50827942741749099 0 0.82709327591102189 0.14937141670914489 0 0.81283102246527783 0.1881007222486438 0 0.77144070960558853 0.14311854477243749 0 0.82709327591091286 0.84937141670920724 0 0.81159157511211755 0.88795995483179491 0 0.76901770135486491 0.84293557325473656 0 0.77144070960558853 0.14311854477243749 0 0.81283102246527783 0.1881007222486438 0 0.76587607630038135 0.18880039518954719 0 0.76901770135486491 0.84293557325473656 0 0.81159157511211755 0.88795995483179491 0 0.76891166905518427 0.88835469571185499 0 0.33403534827021109 0.84402799729020661 0 0.30864387279288652 0.89906554525974958 0 0.29209212897034281 0.84715728365233667 0 0.57412547362576272 0.58273804879550706 0 0.5166924242153631 0.59825134841919447 0 0.53245488764484505 0.55078124999999989 0 0.50202631463681879 0.87892870825713787 0 0.47401147028110507 0.91529957330468115 0 0.44003836461056539 0.88093474584252718 0 0.5 0.69999999999999996 0 0.54999999999999993 0.69999999999999996 0 0.55363780716230748 0.74348740161571747 0 1 0.34999999999993492 0 0.95871855522754235 0.40006508612975411 0 0.95780851984364423 0.34215720972155339 0 1 0.64999999999986979 0 0.9578014258160763 0.65787212321113708 0 0.95867599106212187 0.60011091146651041 0 0.46666084890304671 0.57634471035397938 0 0.47793794143994173 0.52940715638744962 0 0.53245488764484505 0.55078124999999989 0 0.94999999999999996 0.29999999999999999 0 0.89898474358614167 0.25391965591104898 0 0.94399509803921056 0.24399509803922639 0 0.94999999999979179 1 0 0.89898474358632463 0.95391965591118966 0 0.94399509803919068 0.9439950980391687 0 0 0.65000000000104008 0 0.050069554451969707 0.61308520079857043 0 0.046634677244967337 0.671418230738282 0 0 0.35000000000145642 0 0.046389130980076937 0.32668781832131749 0 0.050583896093752537 0.38543522283434112 0 0.50202631463681879 0.87892870825713787 0 0.50627822638148745 0.8263979829520941 0 0.55899371797446828 0.85003102233514438 0 0.54782696902220018 0.79245182748204157 0 0.55899371797446828 0.85003102233514438 0 0.50627822638148745 0.8263979829520941 0 0.50945740445113552 0.75476055527778108 0 0.5 0.69999999999999996 0 0.55363780716230748 0.74348740161571747 0 0.84999999999965292 1 0 0.85170973911348691 0.93569607295217616 0 0.89898474358632463 0.95391965591118966 0 0.84999999999999987 0.29999999999999999 0 0.8517097391133297 0.2356960729520409 0 0.89898474358614167 0.25391965591104898 0 0.86956835336234861 0.571283299838105 0 0.82862096804812391 0.55037090955459045 0 0.86907294890112186 0.52008116128001669 0 0.49102375406324739 0.49123754822244059 0 0.53330375813596242 0.50827942741749099 0 0.47793794143994173 0.52940715638744962 0 0.57611405284611883 0.50165903596042916 0 0.61547661924074692 0.48539576058873962 0 0.62042975506801734 0.54295974692364424 0 0.71406021706547751 0.63292083137662503 0 0.67529834988829951 0.61613270668143583 0 0.71809016091162536 0.58185040402320831 0 0.65000000000104008 1 0 0.62065498684670595 0.95224934003983619 0 0.68015064798562208 0.95924320340003011 0 0.84999999999960507 0 0 0.899991664607802 0.045289349238254978 0 0.85491058998398861 0.060047533455626502 0 0.84999999999999987 0.69999999999999996 0 0.89999166460796554 0.74528934923809909 0 0.85491058998424563 0.76004753345552634 0 0.89999999999999991 0.29999999999999999 0 0.89898474358614167 0.25391965591104898 0 0.94999999999999996 0.29999999999999999 0 0.94999999999979179 1 0 0.89999999999958358 1 0 0.89898474358632463 0.95391965591118966 0 0.86411095495256451 0.42388805655111889 0 0.81308179852519835 0.39754945808726527 0 0.86844634540301924 0.38530937474099819 0 0.5 0.29999999999999999 0 0.49695729691142171 0.25014895411178018 0 0.54248833945060504 0.2520322959927106 0 0.86411095495256451 0.42388805655111889 0 0.81973119833356312 0.43505687159469048 0 0.81308179852519835 0.39754945808726527 0 0.67323294229744413 0.57556450033612505 0 0.71809016091162536 0.58185040402320831 0 0.67529834988829951 0.61613270668143583 0 0.6236733212988993 0.14864538214901801 0 0.68391457121233579 0.14440470121196541 0 0.64011864159029941 0.18789607982138171 0 0 0.050000000000207989 0 0.053064897599215843 0.048131547304697528 0 0.044310582753132287 0.101412518374475 0 0 0.94999999999979179 0 0.0443105827531413 0.89858748162559932 0 0.053064897599294662 0.95186845269532028 0 1 0.34999999999993492 0 1 0.39999999999978308 0 0.95871855522754235 0.40006508612975411 0 1 0.59999999999973963 0 1 0.64999999999986979 0 0.95867599106212187 0.60011091146651041 0 0 0.84999999999965292 0 0.065374659239661639 0.8551091961254178 0 0.0443105827531413 0.89858748162559932 0 0 0.15000000000062411 0 0.044310582753132287 0.101412518374475 0 0.065374659239632718 0.1448908038746782 0 0.16500388252850301 0.66612077714085194 0 0.1020579365089687 0.69352219419301997 0 0.1241190223511371 0.64391885572885044 0 0.14999999999970359 0 0 0.14618258501891079 0.062070108745602003 0 0.10266856499169109 0.044518360900210059 0 0.15000000000062411 1 0 0.10266856499240549 0.95548163909968886 0 0.14617343800780541 0.93808063414349496 0 0.7152569930854884 0.5237994455134295 0 0.67569444444444449 0.53500863336860327 0 0.69385896817107129 0.48377516041410151 0 0.6541250972820879 0.49999999999999989 0 0.62042975506801734 0.54295974692364424 0 0.61547661924074692 0.48539576058873962 0 0.94999999999999996 0.69999999999999996 0 0.94399509803918602 0.75600490196082126 0 0.89999166460796554 0.74528934923809909 0 0.94999999999986839 0 0 0.94399509803922566 0.056004901960802607 0 0.899991664607802 0.045289349238254978 0 0.6541250972820879 0.49999999999999989 0 0.69385896817107129 0.48377516041410151 0 0.67569444444444449 0.53500863336860327 0 0.82862096804812391 0.55037090955459045 0 0.81723410853263523 0.59419663659258926 0 0.77151014687832564 0.54436834383023036 0 0.7250000000005199 0.89375000000045834 0 0.66412543161245952 0.88015090885499059 0 0.68697391633157634 0.84450604838764298 0 0 0.94999999999979179 0 0 0.89999999999958358 0 0.0443105827531413 0.89858748162559932 0 0 0.10000000000041601 0 0 0.050000000000207989 0 0.044310582753132287 0.101412518374475 0 0.16500388252850301 0.66612077714085194 0 0.15332765547575641 0.71200081858233666 0 0.1020579365089687 0.69352219419301997 0 0.90299850604011456 0.79563452813489832 0 0.93677536231884972 0.85000000000000286 0 0.88088768115933802 0.84674609810493673 0 0.90299850604006393 0.09563452813493091 0 0.93677536231883773 0.14999999999999089 0 0.88088768115941807 0.14674609810479519 0 0.68391457121233579 0.14440470121196541 0 0.6865991819015953 0.189116534044597 0 0.64011864159029941 0.18789607982138171 0 0.085622222639554768 0.53333248912060549 0 0.1216098864341134 0.50637075089503902 0 0.1154888278694548 0.56733818459978413 0 0.21858834311891909 0.81980263716112767 0 0.22556077506376701 0.77837424984191617 0 0.26104540868854792 0.81401944968719064 0 0.81723410853263523 0.59419663659258926 0 0.77293540622714185 0.59448302402785813 0 0.77151014687832564 0.54436834383023036 0 0.1154888278694548 0.56733818459978413 0 0.1216098864341134 0.50637075089503902 0 0.14934928745814749 0.55042914607228977 0 0.1216098864341134 0.50637075089503902 0 0.068743045408989428 0.48853989837882689 0 0.113541300460994 0.46208784312094731 0 0.078358742472063481 0.43365249433908948 0 0.113541300460994 0.46208784312094731 0 0.068743045408989428 0.48853989837882689 0 0.83573492347052902 0.36590755630746369 0 0.81308179852519835 0.39754945808726527 0 0.78145581580700685 0.34881365920033602 0 0.57611405284611883 0.50165903596042916 0 0.62042975506801734 0.54295974692364424 0 0.57435499076887508 0.54267261987897775 0 0.86956835336234861 0.571283299838105 0 0.81723410853263523 0.59419663659258926 0 0.82862096804812391 0.55037090955459045 0 0.46666084890304671 0.57634471035397938 0 0.53245488764484505 0.55078124999999989 0 0.5166924242153631 0.59825134841919447 0 0.89999999999999991 0.69999999999999996 0 0.94999999999999996 0.69999999999999996 0 0.89999166460796554 0.74528934923809909 0 0.89999999999973679 0 0 0.94999999999986839 0 0 0.899991664607802 0.045289349238254978 0 0.84999999999960507 0 0 0.89999999999973679 0 0 0.899991664607802 0.045289349238254978 0 0.84999999999999987 0.69999999999999996 0 0.89999999999999991 0.69999999999999996 0 0.89999166460796554 0.74528934923809909 0 0.43545892161006339 0.61093128915313821 0 0.4089290844030305 0.58728915500154233 0 0.46666084890304671 0.57634471035397938 0 0.1650278706801647 0.38791388161335733 0 0.1117088112799664 0.38831403004970022 0 0.14223753364722069 0.3341983344262433 0 0.087545339447545459 0.35122518864182262 0 0.14223753364722069 0.3341983344262433 0 0.1117088112799664 0.38831403004970022 0 0.6916490518212759 0.75387992374886192 0 0.72501250972655151 0.74067302935308721 0 0.72500000000000064 0.7952620967744265 0 0.72501250972655151 0.74067302935308721 0 0.75841349681148107 0.75422312624214749 0 0.72500000000000064 0.7952620967744265 0 0.57412547362576272 0.58273804879550706 0 0.53245488764484505 0.55078124999999989 0 0.57435499076887508 0.54267261987897775 0 1 0.54999999999963112 0 0.95867599106212187 0.60011091146651041 0 0.93732437411268477 0.55911392101136159 0 1 0.44999999999963131 0 0.93814194660195893 0.44426664081746747 0 0.95871855522754235 0.40006508612975411 0 0.4089290844030305 0.58728915500154233 0 0.42644501560315817 0.54603747078095544 0 0.46666084890304671 0.57634471035397938 0 0.89999999999958358 1 0 0.84999999999965292 1 0 0.89898474358632463 0.95391965591118966 0 0.84999999999999987 0.29999999999999999 0 0.89898474358614167 0.25391965591104898 0 0.89999999999999991 0.29999999999999999 0 0.29999999999926641 0 0 0.32541448401678508 0.046215317981507749 0 0.27499999999933927 0.060310814194988557 0 0.30000000000124832 1 0 0.27609987656793722 0.94991445621608572 0 0.32544832635163229 0.95485394099568932 0 0.57412547362576272 0.58273804879550706 0 0.62042975506801734 0.54295974692364424 0 0.63065402604362242 0.59661356661633302 0 0.5 0.29999999999999999 0 0.54248833945060504 0.2520322959927106 0 0.54999999999999993 0.29999999999999999 0 0.67323294229744413 0.57556450033612505 0 0.62042975506801734 0.54295974692364424 0 0.67569444444444449 0.53500863336860327 0 0.6541250972820879 0.49999999999999989 0 0.67569444444444449 0.53500863336860327 0 0.62042975506801734 0.54295974692364424 0 1 0.14999999999961891 0 1 0.19999999999974799 0 0.95391631417672862 0.19584263333809451 0 1 0.84999999999982645 0 1 0.8999999999998336 0 0.95391631417670719 0.89584263333814784 0 1 0.7999999999998193 0 1 0.84999999999982645 0 0.95386563387742829 0.80414874155775029 0 1 0.099999999999753911 0 1 0.14999999999961891 0 0.95386563387744361 0.1041487415577465 0 0.4656888918609538 0.78493261229743638 0 0.50627822638148745 0.8263979829520941 0 0.45677673713123867 0.84253684404072415 0 0.6879972333610942 0.43038561374960838 0 0.72622533758026719 0.40265885511101601 0 0.73483647259922602 0.44789725365921768 0 0.67323294229744413 0.57556450033612505 0 0.67569444444444449 0.53500863336860327 0 0.71809016091162536 0.58185040402320831 0 0.7152569930854884 0.5237994455134295 0 0.71809016091162536 0.58185040402320831 0 0.67569444444444449 0.53500863336860327 0 0.65394964615507722 0.22666784374016369 0 0.59814117807200873 0.23398510860739519 0 0.64011864159029941 0.18789607982138171 0 0.55000000000173355 1 0 0.52122150208832174 0.94089974453840242 0 0.57382506491224949 0.9629411906298494 0 0.39801143831225599 0.16651381068160659 0 0.44288491854585582 0.14116182884956319 0 0.42905200079338551 0.19982395548231649 0 0.47357141910802508 0.1873585799078378 0 0.42905200079338551 0.19982395548231649 0 0.44288491854585582 0.14116182884956319 0 0.90594285160987287 0.4141265964174129 0 0.88594198078881503 0.46167788676578442 0 0.86411095495256451 0.42388805655111889 0 0.65507451745379841 0.92229208810758578 0 0.68015064798562208 0.95924320340003011 0 0.62065498684670595 0.95224934003983619 0 0.35312867752657662 0.084946736076730367 0 0.39591832466117061 0.056982757562006353 0 0.39823268594401579 0.1116623613130045 0 0.43698630808430822 0.080423614171545449 0 0.39823268594401579 0.1116623613130045 0 0.39591832466117061 0.056982757562006353 0 0.4367309254023824 0.92065556789053882 0 0.39641108128798319 0.94356127926187128 0 0.39767323751400468 0.89584229130535065 0 0.35752321586431363 0.9185439911803448 0 0.39767323751400468 0.89584229130535065 0 0.39641108128798319 0.94356127926187128 0 0.77354604466818633 0.40378688774472771 0 0.77972660463949339 0.45529290596363098 0 0.73483647259922602 0.44789725365921768 0 0.5499999999988151 0 0 0.57396793757665954 0.037011367187645222 0 0.52375890611712683 0.059318771819432882 0 0.64753070846764316 0.77332939069435502 0 0.60294066490120068 0.80851322453934582 0 0.59636844454254345 0.75937156204589151 0 0.49102375406324739 0.49123754822244059 0 0.48858720058566618 0.43964267759203868 0 0.53823865529665704 0.45873898050322898 0 0.28307294598219601 0.50789252727458634 0 0.29110487519241501 0.56588143995431495 0 0.25115337790845271 0.54719303014923271 0 0.79680861578988083 0.92656778056766709 0 0.81159157511211755 0.88795995483179491 0 0.85170973911348691 0.93569607295217616 0 0.79680861578956375 0.22656778056752541 0 0.81283102246527783 0.1881007222486438 0 0.8517097391133297 0.2356960729520409 0 0.57412547362576272 0.58273804879550706 0 0.57435499076887508 0.54267261987897775 0 0.62042975506801734 0.54295974692364424 0 0.93814194660195893 0.44426664081746747 0 0.88594198078881503 0.46167788676578442 0 0.90594285160987287 0.4141265964174129 0 0.7152569930854884 0.5237994455134295 0 0.73947346780852752 0.49062440112282169 0 0.77151014687832564 0.54436834383023036 0 0 0.7000000000006934 0 0.046634677244967337 0.671418230738282 0 0.049706944316475897 0.72477277076253799 0 0 0.30000000000124832 0 0.049706944316556423 0.27522722923869108 0 0.046389130980076937 0.32668781832131749 0 0.59814117807200873 0.23398510860739519 0 0.59443395090188023 0.18455690917515069 0 0.64011864159029941 0.18789607982138171 0 0.21858834311891909 0.81980263716112767 0 0.26104540868854792 0.81401944968719064 0 0.2401283238295133 0.85648409884788523 0 0.39536230704883951 0.84069429572832477 0 0.45677673713123867 0.84253684404072415 0 0.44003836461056539 0.88093474584252718 0 0.086179601630648681 0.64647209519980475 0 0.050069554451969707 0.61308520079857043 0 0.1024350934457823 0.60772393977513839 0 0.077693244765132896 0.56932317963405099 0 0.1024350934457823 0.60772393977513839 0 0.050069554451969707 0.61308520079857043 0 0.078358742472063481 0.43365249433908948 0 0.050583896093752537 0.38543522283434112 0 0.1117088112799664 0.38831403004970022 0 0.087545339447545459 0.35122518864182262 0 0.1117088112799664 0.38831403004970022 0 0.050583896093752537 0.38543522283434112 0 0.33403534827021109 0.84402799729020661 0 0.35642984951668422 0.80994399665655703 0 0.39536230704883951 0.84069429572832477 0 0.28307294598219601 0.50789252727458634 0 0.33190227185843768 0.52715113583864037 0 0.29110487519241501 0.56588143995431495 0 0.2236846579037573 0.67380363126050236 0 0.19068556247388771 0.71028988922845504 0 0.16500388252850301 0.66612077714085194 0 0.26104540868854792 0.81401944968719064 0 0.22556077506376701 0.77837424984191617 0 0.2792923945214143 0.77665808831789485 0 0.38244435121258652 0.51653317813019495 0 0.37272913873093971 0.56192925302619479 0 0.33190227185843768 0.52715113583864037 0 0.25195515620380449 0.25883339815888678 0 0.29132859388405002 0.27203693976649962 0 0.24432083401701241 0.3006253385567515 0 0.29348325746214782 0.31350119524708198 0 0.24432083401701241 0.3006253385567515 0 0.29132859388405002 0.27203693976649962 0 0 0.89999999999958358 0 0 0.84999999999965292 0 0.0443105827531413 0.89858748162559932 0 0 0.15000000000062411 0 0 0.10000000000041601 0 0.044310582753132287 0.101412518374475 0 0.59999999999999976 0.69999999999999996 0 0.59636844454254345 0.75937156204589151 0 0.55363780716230748 0.74348740161571747 0 0.1650278706801647 0.38791388161335733 0 0.22033343844674469 0.36963382230740238 0 0.191953871957803 0.42546416763755879 0 0.52289427570932567 0.3932284363388488 0 0.46655310992796922 0.39650496622958609 0 0.49077833859261139 0.35229981449445641 0 0.91696753777131557 0.497780560203536 0 0.88594198078881503 0.46167788676578442 0 0.93814194660195893 0.44426664081746747 0 0.24999999999941211 0 0 0.27499999999933927 0.060310814194988557 0 0.22668068146512929 0.045875643423131329 0 0.25000000000104028 1 0 0.22850979588452081 0.95594428570238643 0 0.27609987656793722 0.94991445621608572 0 0.77846603114747959 0.49850927265137401 0 0.77151014687832564 0.54436834383023036 0 0.73947346780852752 0.49062440112282169 0 0.27499999999933927 0.060310814194988557 0 0.27474541102162192 0.11822029332053539 0 0.24218496799700481 0.089025544070598317 0 0.27270076654418179 0.87751467830216623 0 0.29209212897034281 0.84715728365233667 0 0.30864387279288652 0.89906554525974958 0 0.3096713403101819 0.085471541595262421 0 0.27474541102162192 0.11822029332053539 0 0.27499999999933927 0.060310814194988557 0 0.17933913398461551 0.2350063570234002 0 0.18124454140915969 0.18790916706335251 0 0.224700362040408 0.22206622194729711 0 0.18269480424590959 0.75905448272264375 0 0.22556077506376701 0.77837424984191617 0 0.17777405986036951 0.81832336108265358 0 0.35864759629805099 0.87963482415279515 0 0.33403534827021109 0.84402799729020661 0 0.39536230704883951 0.84069429572832477 0 0.77354604466818633 0.40378688774472771 0 0.73483647259922602 0.44789725365921768 0 0.72622533758026719 0.40265885511101601 0 0.80185942888539485 0.77452061303608133 0 0.85491058998424563 0.76004753345552634 0 0.84725310900444062 0.80779732082917555 0 0.80185942888501827 0.074520613036224564 0 0.85491058998398861 0.060047533455626502 0 0.84725310900442086 0.10779732082922661 0 0.086179601630648681 0.64647209519980475 0 0.046634677244967337 0.671418230738282 0 0.050069554451969707 0.61308520079857043 0 0.087545339447545459 0.35122518864182262 0 0.050583896093752537 0.38543522283434112 0 0.046389130980076937 0.32668781832131749 0 0 0.75000000000034661 0 0.049706944316475897 0.72477277076253799 0 0.04408157711937423 0.7728941757575627 0 0 0.25000000000104028 0 0.044081577119474857 0.2271058242433576 0 0.049706944316556423 0.27522722923869108 0 0.52289427570932567 0.3932284363388488 0 0.56836770495988642 0.3523062350852913 0 0.57744073070774993 0.41535148636609359 0 0.6084546825910605 0.37989672713932537 0 0.57744073070774993 0.41535148636609359 0 0.56836770495988642 0.3523062350852913 0 0.61343887413683884 0.856862479058357 0 0.55899371797446828 0.85003102233514438 0 0.60294066490120068 0.80851322453934582 0 0.54782696902220018 0.79245182748204157 0 0.60294066490120068 0.80851322453934582 0 0.55899371797446828 0.85003102233514438 0 0.40326160981139969 0.73346192995102844 0 0.36622285152418499 0.69092437780804039 0 0.43323420005758778 0.6913544522562407 0 0.52289427570932567 0.3932284363388488 0 0.48858720058566618 0.43964267759203868 0 0.46655310992796922 0.39650496622958609 0 0.15720202157091859 0.60665697304410315 0 0.1154888278694548 0.56733818459978413 0 0.14934928745814749 0.55042914607228977 0 0.6879972333610942 0.43038561374960838 0 0.73483647259922602 0.44789725365921768 0 0.69385896817107129 0.48377516041410151 0 0.7250000000005199 0.89375000000045834 0 0.68987011941058407 0.92105047536677087 0 0.66412543161245952 0.88015090885499059 0 0.83573492347052902 0.36590755630746369 0 0.78145581580700685 0.34881365920033602 0 0.82500000000000062 0.33010209762754811 0 0.82862096804812391 0.55037090955459045 0 0.81441713509985358 0.51161854125224959 0 0.86907294890112186 0.52008116128001669 0 0.19670163708476801 0.31472518408333222 0 0.14223753364722069 0.3341983344262433 0 0.168349569971391 0.28054490850913671 0 0.50202631463681879 0.87892870825713787 0 0.45677673713123867 0.84253684404072415 0 0.50627822638148745 0.8263979829520941 0 0.099999999999814668 0 0 0.14999999999970359 0 0 0.10266856499169109 0.044518360900210059 0 0.15000000000062411 1 0 0.10000000000041601 1 0 0.10266856499240549 0.95548163909968886 0 0.67323294229744413 0.57556450033612505 0 0.63065402604362242 0.59661356661633302 0 0.62042975506801734 0.54295974692364424 0 0.083105206071467416 0.20007701332709979 0 0.13737030665753211 0.20313708640667491 0 0.095326043202144745 0.24554465089224409 0 0.083105206071452636 0.79992298667296435 0 0.090953281884486245 0.7564451946902494 0 0.1382744753146134 0.79650574229207483 0 0.50000000000205869 1 0 0.47135117303824892 0.95556877749289892 0 0.52122150208832174 0.94089974453840242 0 0.49999999999869432 0 0 0.52375890611712683 0.059318771819432882 0 0.47040171442036788 0.044141676406503738 0 0.4656888918609538 0.78493261229743638 0 0.45582236402875981 0.73896743678908217 0 0.50945740445113552 0.75476055527778108 0 0.5 0.69999999999999996 0 0.50945740445113552 0.75476055527778108 0 0.45582236402875981 0.73896743678908217 0 0.55306006949600994 0.20198184231352201 0 0.56202748619534593 0.15054058349222879 0 0.59443395090188023 0.18455690917515069 0 0.6236733212988993 0.14864538214901801 0 0.59443395090188023 0.18455690917515069 0 0.56202748619534593 0.15054058349222879 0 0.57412547362576272 0.58273804879550706 0 0.5498280205245758 0.6290146943450976 0 0.5166924242153631 0.59825134841919447 0 0.91696753777131557 0.497780560203536 0 0.93814194660195893 0.44426664081746747 0 0.96228564064454991 0.48206450662049471 0 0.15720202157091859 0.60665697304410315 0 0.16500388252850301 0.66612077714085194 0 0.1241190223511371 0.64391885572885044 0 0.44288491854585582 0.14116182884956319 0 0.47881186583059909 0.093591717165689425 0 0.48466639505193998 0.1421439844745814 0 1 0.54999999999963112 0 0.93732437411268477 0.55911392101136159 0 0.95631871884947484 0.51827533208233789 0 0.57724883562309992 0.92155686857100794 0 0.57382506491224949 0.9629411906298494 0 0.52122150208832174 0.94089974453840242 0 0.85170973911348691 0.93569607295217616 0 0.81159157511211755 0.88795995483179491 0 0.85600844944837662 0.88483418979512773 0 0.8517097391133297 0.2356960729520409 0 0.81283102246527783 0.1881007222486438 0 0.85600844944842547 0.1848341897950983 0 0.27866744612395528 0.38416094670951489 0 0.29124338931648802 0.43334555462578611 0 0.24049127783545701 0.41270748208749802 0 0.6084546825910605 0.37989672713932537 0 0.56836770495988642 0.3523062350852913 0 0.61959173890754571 0.33832250091341232 0 0.20050006573841939 0.53248514016039872 0 0.25115337790845271 0.54719303014923271 0 0.22549374774072969 0.58452645269293457 0 0.26573297623774761 0.59828298563722948 0 0.22549374774072969 0.58452645269293457 0 0.25115337790845271 0.54719303014923271 0 0.26104540868854792 0.81401944968719064 0 0.29209212897034281 0.84715728365233667 0 0.2401283238295133 0.85648409884788523 0 0.6236733212988993 0.14864538214901801 0 0.65290632656860115 0.11434202593454081 0 0.68391457121233579 0.14440470121196541 0 0.19901705110390991 0.9175543425573498 0 0.19741632902693801 0.86755867406447229 0 0.24536017905392571 0.90704567837671446 0 0.72500000000000064 0.7952620967744265 0 0.76901770135486491 0.84293557325473656 0 0.72863726579783861 0.85390518901155588 0 0.72500000000000064 0.7952620967744265 0 0.72863726579783861 0.85390518901155588 0 0.68697391633157634 0.84450604838764298 0 0.7250000000005199 0.89375000000045834 0 0.68697391633157634 0.84450604838764298 0 0.72863726579783861 0.85390518901155588 0 0.72525833953073282 0.1032114801687094 0 0.77144070960558853 0.14311854477243749 0 0.72634814642510737 0.16106886917518889 0 0.72525833953073282 0.1032114801687094 0 0.72634814642510737 0.16106886917518889 0 0.68391457121233579 0.14440470121196541 0 0.36622285152418499 0.69092437780804039 0 0.3977710372045391 0.65868194622830212 0 0.43323420005758778 0.6913544522562407 0 0 0.65000000000104008 0 0 0.60000000000138687 0 0.050069554451969707 0.61308520079857043 0 0 0.40000000000166441 0 0 0.35000000000145642 0 0.050583896093752537 0.38543522283434112 0 0.22033343844674469 0.36963382230740238 0 0.24049127783545701 0.41270748208749802 0 0.191953871957803 0.42546416763755879 0 0.5 0.29999999999999999 0 0.4604742573284204 0.27846934318264788 0 0.49695729691142171 0.25014895411178018 0 0.19741632902693801 0.86755867406447229 0 0.2401283238295133 0.85648409884788523 0 0.24536017905392571 0.90704567837671446 0 0 0.50000000000205869 0 0.068743045408989428 0.48853989837882689 0 0.044576108720083309 0.53509043209532614 0 0.15000000000062411 1 0 0.14617343800780541 0.93808063414349496 0 0.18474005699953849 0.96231585248064622 0 0.14999999999970359 0 0 0.184418230509967 0.038773194583122873 0 0.14618258501891079 0.062070108745602003 0 0.57667858002728545 0.078486105337742612 0 0.52375890611712683 0.059318771819432882 0 0.57396793757665954 0.037011367187645222 0 0.113541300460994 0.46208784312094731 0 0.078358742472063481 0.43365249433908948 0 0.13773355295499351 0.42497777642586831 0 0.77354604466818633 0.40378688774472771 0 0.78145581580700685 0.34881365920033602 0 0.81308179852519835 0.39754945808726527 0 0.38244435121258652 0.51653317813019495 0 0.33190227185843768 0.52715113583864037 0 0.35024835142131061 0.48654922671676981 0 0.64753070846764316 0.77332939069435502 0 0.65005442820240822 0.82644988530054031 0 0.60294066490120068 0.80851322453934582 0 0.15720202157091859 0.60665697304410315 0 0.1024350934457823 0.60772393977513839 0 0.1154888278694548 0.56733818459978413 0 0.90416666666660628 0.9041666666666166 0 0.85600844944837662 0.88483418979512773 0 0.88088768115933802 0.84674609810493673 0 0.90416666666668166 0.20416666666667119 0 0.85600844944842547 0.1848341897950983 0 0.88088768115941807 0.14674609810479519 0 0.078358742472063481 0.43365249433908948 0 0.1117088112799664 0.38831403004970022 0 0.13773355295499351 0.42497777642586831 0 0.38244435121258652 0.51653317813019495 0 0.3908716102680424 0.47010282357248828 0 0.43507373378304309 0.49699695397193322 0 0.90299850604011456 0.79563452813489832 0 0.95386563387742829 0.80414874155775029 0 0.93677536231884972 0.85000000000000286 0 0.90416666666660628 0.9041666666666166 0 0.93677536231884972 0.85000000000000286 0 0.95391631417670719 0.89584263333814784 0 0.90299850604006393 0.09563452813493091 0 0.95386563387744361 0.1041487415577465 0 0.93677536231883773 0.14999999999999089 0 0.90416666666668166 0.20416666666667119 0 0.93677536231883773 0.14999999999999089 0 0.95391631417672862 0.19584263333809451 0 0.39536230704883951 0.84069429572832477 0 0.44003836461056539 0.88093474584252718 0 0.39767323751400468 0.89584229130535065 0 0.51076801031701946 0.1202837388510348 0 0.52375890611712683 0.059318771819432882 0 0.54979595918804436 0.1060565713905809 0 0.57667858002728545 0.078486105337742612 0 0.54979595918804436 0.1060565713905809 0 0.52375890611712683 0.059318771819432882 0 0.57724883562309992 0.92155686857100794 0 0.52122150208832174 0.94089974453840242 0 0.54783390826260769 0.89287767010860219 0 0.50202631463681879 0.87892870825713787 0 0.54783390826260769 0.89287767010860219 0 0.52122150208832174 0.94089974453840242 0 0.087545339447545459 0.35122518864182262 0 0.093851963071650835 0.30582068233324772 0 0.14223753364722069 0.3341983344262433 0 0.54999999999999993 0.69999999999999996 0 0.59999999999999976 0.69999999999999996 0 0.55363780716230748 0.74348740161571747 0 0.083105206071452636 0.79992298667296435 0 0.1074251789111534 0.83564394292147814 0 0.065374659239661639 0.8551091961254178 0 0.083105206071467416 0.20007701332709979 0 0.065374659239632718 0.1448908038746782 0 0.106902708054812 0.16453234188234539 0 0.52289427570932567 0.3932284363388488 0 0.53823865529665704 0.45873898050322898 0 0.48858720058566618 0.43964267759203868 0 0.13737030665753211 0.20313708640667491 0 0.14377654328998779 0.2442024734791064 0 0.095326043202144745 0.24554465089224409 0 0.1382744753146134 0.79650574229207483 0 0.090953281884486245 0.7564451946902494 0 0.14335651144331049 0.75565258250209677 0 0.27270076654418179 0.87751467830216623 0 0.30864387279288652 0.89906554525974958 0 0.24536017905392571 0.90704567837671446 0 0.27609987656793722 0.94991445621608572 0 0.24536017905392571 0.90704567837671446 0 0.30864387279288652 0.89906554525974958 0 0.90299850604011456 0.79563452813489832 0 0.84725310900444062 0.80779732082917555 0 0.85491058998424563 0.76004753345552634 0 0.90299850604006393 0.09563452813493091 0 0.84725310900442086 0.10779732082922661 0 0.85491058998398861 0.060047533455626502 0 1 0.54999999999963112 0 1 0.59999999999973963 0 0.95867599106212187 0.60011091146651041 0 1 0.39999999999978308 0 1 0.44999999999963131 0 0.95871855522754235 0.40006508612975411 0 0.28040350263641872 0.23054717217092141 0 0.25195515620380449 0.25883339815888678 0 0.224700362040408 0.22206622194729711 0 0.84999999999999987 0.29999999999999999 0 0.87430060258887643 0.34056085888204451 0 0.82500000000000062 0.33010209762754811 0 0.84999999999999987 0.69999999999999996 0 0.82457059160610424 0.66831947184359608 0 0.87712158428786946 0.65709029563313581 0 0.86956835336234861 0.571283299838105 0 0.87159648282691515 0.61285406320581504 0 0.81723410853263523 0.59419663659258926 0 0.43698630808430822 0.080423614171545449 0 0.47881186583059909 0.093591717165689425 0 0.44288491854585582 0.14116182884956319 0 1 0.44999999999963131 0 0.96228564064454991 0.48206450662049471 0 0.93814194660195893 0.44426664081746747 0 0.35752321586431363 0.9185439911803448 0 0.30864387279288652 0.89906554525974958 0 0.35864759629805099 0.87963482415279515 0 0.29124338931648802 0.43334555462578611 0 0.25982634974572738 0.46097799597715272 0 0.24049127783545701 0.41270748208749802 0 0.51076801031701946 0.1202837388510348 0 0.56202748619534593 0.15054058349222879 0 0.51729576145820033 0.1683240575987815 0 0.55306006949600994 0.20198184231352201 0 0.51729576145820033 0.1683240575987815 0 0.56202748619534593 0.15054058349222879 0 0.26429849586623999 0.19346700179430079 0 0.28040350263641872 0.23054717217092141 0 0.224700362040408 0.22206622194729711 0 0.51076801031701946 0.1202837388510348 0 0.48466639505193998 0.1421439844745814 0 0.47881186583059909 0.093591717165689425 0 0.2185883431182947 0.18019736283949719 0 0.26429849586623999 0.19346700179430079 0 0.224700362040408 0.22206622194729711 0 0.18269480424590959 0.75905448272264375 0 0.2248999640082178 0.72584299459689172 0 0.22556077506376701 0.77837424984191617 0 0.51076801031701946 0.1202837388510348 0 0.47881186583059909 0.093591717165689425 0 0.52375890611712683 0.059318771819432882 0 0.50202631463681879 0.87892870825713787 0 0.52122150208832174 0.94089974453840242 0 0.47401147028110507 0.91529957330468115 0 0 0.84999999999965292 0 0.038512288486097702 0.8155852717111195 0 0.065374659239661639 0.8551091961254178 0 0 0.15000000000062411 0 0.065374659239632718 0.1448908038746782 0 0.038512288486115001 0.1844147282893184 0 0.2185883431182947 0.18019736283949719 0 0.224700362040408 0.22206622194729711 0 0.18124454140915969 0.18790916706335251 0 0.21858834311891909 0.81980263716112767 0 0.17777405986036951 0.81832336108265358 0 0.22556077506376701 0.77837424984191617 0 0.1215415378367805 0.72939333680004137 0 0.1020579365089687 0.69352219419301997 0 0.15332765547575641 0.71200081858233666 0 0.49695729691142171 0.25014895411178018 0 0.50760557329222289 0.20700468884612061 0 0.54248833945060504 0.2520322959927106 0 0.15720202157091859 0.60665697304410315 0 0.14934928745814749 0.55042914607228977 0 0.18381867841758909 0.57774125163628387 0 0.90416666666660628 0.9041666666666166 0 0.85170973911348691 0.93569607295217616 0 0.85600844944837662 0.88483418979512773 0 0.90416666666668166 0.20416666666667119 0 0.8517097391133297 0.2356960729520409 0 0.85600844944842547 0.1848341897950983 0 0.17933913398461551 0.2350063570234002 0 0.13737030665753211 0.20313708640667491 0 0.18124454140915969 0.18790916706335251 0 0.18269480424590959 0.75905448272264375 0 0.17777405986036951 0.81832336108265358 0 0.1382744753146134 0.79650574229207483 0 0.1216098864341134 0.50637075089503902 0 0.15801167086041079 0.46008690540259539 0 0.16618607197337229 0.50652878253548905 0 0.50760557329222289 0.20700468884612061 0 0.55306006949600994 0.20198184231352201 0 0.54248833945060504 0.2520322959927106 0 0.75000000000034661 1 0 0.7000000000006934 1 0 0.7250000000005199 0.94981617647078953 0 0.69999999999999984 0.29999999999999999 0 0.72500000000000064 0.2498161764706 0 0.74999999999999989 0.29999999999999999 0 0.72525833953073282 0.1032114801687094 0 0.68391457121233579 0.14440470121196541 0 0.68330259535470161 0.10038702501083881 0 0.43249999999999988 0.43937499999999979 0 0.46655310992796922 0.39650496622958609 0 0.48858720058566618 0.43964267759203868 0 0.19901705110390991 0.9175543425573498 0 0.14617343800780541 0.93808063414349496 0 0.16206583317966519 0.89685560785156404 0 0.19922788606653311 0.085920220746880993 0 0.16141998738593399 0.10404039647458049 0 0.14618258501891079 0.062070108745602003 0 0.31378396441836959 0.70157213313026345 0 0.26439878998046262 0.7048065392091396 0 0.27820712747429932 0.65530134213254643 0 0.1216098864341134 0.50637075089503902 0 0.113541300460994 0.46208784312094731 0 0.15801167086041079 0.46008690540259539 0 0.6084546825910605 0.37989672713932537 0 0.65481233915350323 0.35652751921065562 0 0.63912439215427275 0.41063340167983359 0 0.19901705110390991 0.9175543425573498 0 0.18474005699953849 0.96231585248064622 0 0.14617343800780541 0.93808063414349496 0 0.19922788606653311 0.085920220746880993 0 0.14618258501891079 0.062070108745602003 0 0.184418230509967 0.038773194583122873 0 0.38244435121258652 0.51653317813019495 0 0.35024835142131061 0.48654922671676981 0 0.3908716102680424 0.47010282357248828 0 0.82709327591102189 0.14937141670914489 0 0.77144070960558853 0.14311854477243749 0 0.80076557130237269 0.1154587552654202 0 0.82709327591091286 0.84937141670920724 0 0.76901770135486491 0.84293557325473656 0 0.80041942726660109 0.81543261647703358 0 0.43698630808430822 0.080423614171545449 0 0.44288491854585582 0.14116182884956319 0 0.39823268594401579 0.1116623613130045 0 0.39801143831225599 0.16651381068160659 0 0.39823268594401579 0.1116623613130045 0 0.44288491854585582 0.14116182884956319 0 0.36575549820117997 0.31677992835137742 0 0.3786248352540974 0.27082301512024259 0 0.41914690343363781 0.30688979866601612 0 0.42377727103934271 0.25099357235810238 0 0.41914690343363781 0.30688979866601612 0 0.3786248352540974 0.27082301512024259 0 0.049706944316475897 0.72477277076253799 0 0.1020579365089687 0.69352219419301997 0 0.090953281884486245 0.7564451946902494 0 0.1215415378367805 0.72939333680004137 0 0.090953281884486245 0.7564451946902494 0 0.1020579365089687 0.69352219419301997 0 0.1247745017231483 0.27198077544791172 0 0.093851963071650835 0.30582068233324772 0 0.095326043202144745 0.24554465089224409 0 0.049706944316556423 0.27522722923869108 0 0.095326043202144745 0.24554465089224409 0 0.093851963071650835 0.30582068233324772 0 0.77354604466818633 0.40378688774472771 0 0.81973119833356312 0.43505687159469048 0 0.77972660463949339 0.45529290596363098 0 0.43249999999999988 0.43937499999999979 0 0.43507373378304309 0.49699695397193322 0 0.3908716102680424 0.47010282357248828 0 0.26573297623774761 0.59828298563722948 0 0.2459498854893499 0.63248470766216769 0 0.22549374774072969 0.58452645269293457 0 0.72500000000000064 0.7952620967744265 0 0.77094201086366854 0.79647480515688507 0 0.76901770135486491 0.84293557325473656 0 0.72525833953073282 0.1032114801687094 0 0.76878382444651716 0.097147941686331368 0 0.77144070960558853 0.14311854477243749 0 0.72500000000000064 0.7952620967744265 0 0.68697391633157634 0.84450604838764298 0 0.68024162096458085 0.79868546898116533 0 0.31378396441836959 0.70157213313026345 0 0.29904318922293632 0.74132814928635593 0 0.26439878998046262 0.7048065392091396 0 0.31378396441836959 0.70157213313026345 0 0.35415581127540569 0.73730480045900215 0 0.29904318922293632 0.74132814928635593 0 0.61343887413683884 0.856862479058357 0 0.65005442820240822 0.82644988530054031 0 0.66412543161245952 0.88015090885499059 0 0.68697391633157634 0.84450604838764298 0 0.66412543161245952 0.88015090885499059 0 0.65005442820240822 0.82644988530054031 0 0.083411279318375747 0.91030024466934134 0 0.065374659239661639 0.8551091961254178 0 0.10562472963403439 0.87143394428979881 0 0.083411279318303222 0.089699755330707398 0 0.1053400320299198 0.12877248826361379 0 0.065374659239632718 0.1448908038746782 0 0.55306006949600994 0.20198184231352201 0 0.59443395090188023 0.18455690917515069 0 0.59814117807200873 0.23398510860739519 0 0.84999999999999987 0.29999999999999999 0 0.89999999999999991 0.29999999999999999 0 0.87430060258887643 0.34056085888204451 0 0.84999999999999987 0.69999999999999996 0 0.87712158428786946 0.65709029563313581 0 0.89999999999999991 0.69999999999999996 0 0.34258405725730701 0.4444034294386992 0 0.3908716102680424 0.47010282357248828 0 0.35024835142131061 0.48654922671676981 0 0.26573297623774761 0.59828298563722948 0 0.31502927232353312 0.6134992213375432 0 0.27820712747429932 0.65530134213254643 0 0.91696753777131557 0.497780560203536 0 0.86907294890112186 0.52008116128001669 0 0.88594198078881503 0.46167788676578442 0 0.84723782639812573 0.48638347960178252 0 0.88594198078881503 0.46167788676578442 0 0.86907294890112186 0.52008116128001669 0 0.7152569930854884 0.5237994455134295 0 0.77151014687832564 0.54436834383023036 0 0.71809016091162536 0.58185040402320831 0 0.90416666666660628 0.9041666666666166 0 0.89898474358632463 0.95391965591118966 0 0.85170973911348691 0.93569607295217616 0 0.90416666666668166 0.20416666666667119 0 0.89898474358614167 0.25391965591104898 0 0.8517097391133297 0.2356960729520409 0 0.91750694127107502 0.36982372220068471 0 0.95780851984364423 0.34215720972155339 0 0.95871855522754235 0.40006508612975411 0 0.91750694127105259 0.63017627779935648 0 0.95867599106212187 0.60011091146651041 0 0.9578014258160763 0.65787212321113708 0 0.90299850604011456 0.79563452813489832 0 0.88088768115933802 0.84674609810493673 0 0.84725310900444062 0.80779732082917555 0 0.90299850604006393 0.09563452813493091 0 0.88088768115941807 0.14674609810479519 0 0.84725310900442086 0.10779732082922661 0 0.1216098864341134 0.50637075089503902 0 0.16618607197337229 0.50652878253548905 0 0.14934928745814749 0.55042914607228977 0 0.20050006573841939 0.53248514016039872 0 0.14934928745814749 0.55042914607228977 0 0.16618607197337229 0.50652878253548905 0 0.80185942888539485 0.77452061303608133 0 0.84725310900444062 0.80779732082917555 0 0.80041942726660109 0.81543261647703358 0 0.80185942888501827 0.074520613036224564 0 0.84725310900442086 0.10779732082922661 0 0.80076557130237269 0.1154587552654202 0 0.083105206071452636 0.79992298667296435 0 0.065374659239661639 0.8551091961254178 0 0.038512288486097702 0.8155852717111195 0 0.083105206071467416 0.20007701332709979 0 0.038512288486115001 0.1844147282893184 0 0.065374659239632718 0.1448908038746782 0 0.54782696902220018 0.79245182748204157 0 0.59636844454254345 0.75937156204589151 0 0.60294066490120068 0.80851322453934582 0 0.083411279318375747 0.91030024466934134 0 0.0443105827531413 0.89858748162559932 0 0.065374659239661639 0.8551091961254178 0 0.083411279318303222 0.089699755330707398 0 0.065374659239632718 0.1448908038746782 0 0.044310582753132287 0.101412518374475 0 0.84999999999965292 1 0 0.81486180804382891 0.96321394949790495 0 0.85170973911348691 0.93569607295217616 0 0.84999999999999987 0.29999999999999999 0 0.81486180804364938 0.26321394949780091 0 0.8517097391133297 0.2356960729520409 0 0.4656888918609538 0.78493261229743638 0 0.45677673713123867 0.84253684404072415 0 0.42609163930740518 0.80361684430568059 0 0.39536230704883951 0.84069429572832477 0 0.42609163930740518 0.80361684430568059 0 0.45677673713123867 0.84253684404072415 0 0.6236733212988993 0.14864538214901801 0 0.56202748619534593 0.15054058349222879 0 0.58516465772821369 0.11653801664834119 0 0.57412547362576272 0.58273804879550706 0 0.63065402604362242 0.59661356661633302 0 0.5991018319127801 0.62925360607495295 0 0.61343887413683884 0.856862479058357 0 0.5832743223239254 0.88483152652961872 0 0.55899371797446828 0.85003102233514438 0 0.50202631463681879 0.87892870825713787 0 0.55899371797446828 0.85003102233514438 0 0.54783390826260769 0.89287767010860219 0 0.51076801031701946 0.1202837388510348 0 0.54979595918804436 0.1060565713905809 0 0.56202748619534593 0.15054058349222879 0 0.55306006949600994 0.20198184231352201 0 0.59814117807200873 0.23398510860739519 0 0.54248833945060504 0.2520322959927106 0 0.83573492347052902 0.36590755630746369 0 0.82500000000000062 0.33010209762754811 0 0.87430060258887643 0.34056085888204451 0 0.83758014339878906 0.63222013025741819 0 0.87712158428786946 0.65709029563313581 0 0.82457059160610424 0.66831947184359608 0 0.49102375406324739 0.49123754822244059 0 0.53823865529665704 0.45873898050322898 0 0.53330375813596242 0.50827942741749099 0 0.52289427570932567 0.3932284363388488 0 0.57744073070774993 0.41535148636609359 0 0.53823865529665704 0.45873898050322898 0 0.4089290844030305 0.58728915500154233 0 0.37272913873093971 0.56192925302619479 0 0.42644501560315817 0.54603747078095544 0 0.49695729691142171 0.25014895411178018 0 0.4604742573284204 0.27846934318264788 0 0.46429753744194407 0.22870891180733599 0 0.90299850604011456 0.79563452813489832 0 0.85491058998424563 0.76004753345552634 0 0.89999166460796554 0.74528934923809909 0 0.90299850604006393 0.09563452813493091 0 0.85491058998398861 0.060047533455626502 0 0.899991664607802 0.045289349238254978 0 0.38244435121258652 0.51653317813019495 0 0.42644501560315817 0.54603747078095544 0 0.37272913873093971 0.56192925302619479 0 0.71406021706547751 0.63292083137662503 0 0.71809016091162536 0.58185040402320831 0 0.74994237037456724 0.62775548192980357 0 0.84723782639812573 0.48638347960178252 0 0.86907294890112186 0.52008116128001669 0 0.81441713509985358 0.51161854125224959 0 0.33122374654748771 0.57588941099433744 0 0.33190227185843768 0.52715113583864037 0 0.37272913873093971 0.56192925302619479 0 0.086179601630648681 0.64647209519980475 0 0.1241190223511371 0.64391885572885044 0 0.1020579365089687 0.69352219419301997 0 0.59999999999894682 0 0 0.64999999999907843 0 0 0.61940220174112337 0.047251958781050582 0 0.18269480424590959 0.75905448272264375 0 0.14335651144331049 0.75565258250209677 0 0.15332765547575641 0.71200081858233666 0 0.22549374774072969 0.58452645269293457 0 0.2459498854893499 0.63248470766216769 0 0.19914261668318661 0.62286739485272158 0 0.38244435121258652 0.51653317813019495 0 0.43507373378304309 0.49699695397193322 0 0.42644501560315817 0.54603747078095544 0 0.65000000000104008 1 0 0.60000000000138687 1 0 0.62065498684670595 0.95224934003983619 0 0.078358742472063481 0.43365249433908948 0 0.068743045408989428 0.48853989837882689 0 0.033550201249889847 0.46247875832467239 0 0.2236846579037573 0.67380363126050236 0 0.27820712747429932 0.65530134213254643 0 0.26439878998046262 0.7048065392091396 0 0.6879972333610942 0.43038561374960838 0 0.68128176404677243 0.38629093627004979 0 0.72622533758026719 0.40265885511101601 0 0.72525833953073282 0.1032114801687094 0 0.7010294155333181 0.056779085686491267 0 0.7527966693318906 0.053051678021508272 0 0.18269480424590959 0.75905448272264375 0 0.15332765547575641 0.71200081858233666 0 0.19068556247388771 0.71028988922845504 0 0.1216098864341134 0.50637075089503902 0 0.085622222639554768 0.53333248912060549 0 0.068743045408989428 0.48853989837882689 0 0.25676291524611189 0.7436741304886243 0 0.26439878998046262 0.7048065392091396 0 0.29904318922293632 0.74132814928635593 0 0.65481233915350323 0.35652751921065562 0 0.68128176404677243 0.38629093627004979 0 0.63912439215427275 0.41063340167983359 0 0.83573492347052902 0.36590755630746369 0 0.86844634540301924 0.38530937474099819 0 0.81308179852519835 0.39754945808726527 0 0.27270076654418179 0.87751467830216623 0 0.2401283238295133 0.85648409884788523 0 0.29209212897034281 0.84715728365233667 0 0.84999999999999987 0.69999999999999996 0 0.85491058998424563 0.76004753345552634 0 0.81864958914779962 0.73589050177899629 0 0.84999999999960507 0 0 0.85491058998398861 0.060047533455626502 0 0.81864958914740749 0.035890501779055867 0 0.18381867841758909 0.57774125163628387 0 0.19914261668318661 0.62286739485272158 0 0.15720202157091859 0.60665697304410315 0 0.22549374774072969 0.58452645269293457 0 0.19914261668318661 0.62286739485272158 0 0.18381867841758909 0.57774125163628387 0 0.79680861578988083 0.92656778056766709 0 0.85170973911348691 0.93569607295217616 0 0.81486180804382891 0.96321394949790495 0 0.79680861578956375 0.22656778056752541 0 0.8517097391133297 0.2356960729520409 0 0.81486180804364938 0.26321394949780091 0 0.20050006573841939 0.53248514016039872 0 0.23975172658309729 0.49475499200540818 0 0.25115337790845271 0.54719303014923271 0 0.28307294598219601 0.50789252727458634 0 0.25115337790845271 0.54719303014923271 0 0.23975172658309729 0.49475499200540818 0 0.20050006573841939 0.53248514016039872 0 0.18381867841758909 0.57774125163628387 0 0.14934928745814749 0.55042914607228977 0 0.19922788606653311 0.085920220746880993 0 0.22985637510995899 0.1298347970200906 0 0.18652628422869419 0.14162325200928061 0 0.33758650185219202 0.23837101504325639 0 0.38831533174504851 0.2189834941785925 0 0.3786248352540974 0.27082301512024259 0 0.42377727103934271 0.25099357235810238 0 0.3786248352540974 0.27082301512024259 0 0.38831533174504851 0.2189834941785925 0 0.19922788606653311 0.085920220746880993 0 0.18652628422869419 0.14162325200928061 0 0.16141998738593399 0.10404039647458049 0 0.54782696902220018 0.79245182748204157 0 0.55363780716230748 0.74348740161571747 0 0.59636844454254345 0.75937156204589151 0 0.82709327591091286 0.84937141670920724 0 0.88088768115933802 0.84674609810493673 0 0.85600844944837662 0.88483418979512773 0 0.82709327591102189 0.14937141670914489 0 0.88088768115941807 0.14674609810479519 0 0.85600844944842547 0.1848341897950983 0 0.27866744612395528 0.38416094670951489 0 0.22033343844674469 0.36963382230740238 0 0.25966125648670141 0.34351016742083729 0 0 0.50000000000205869 0 0.033550201249889847 0.46247875832467239 0 0.068743045408989428 0.48853989837882689 0 0.31378396441836959 0.70157213313026345 0 0.36622285152418499 0.69092437780804039 0 0.35415581127540569 0.73730480045900215 0 0.77293540622714185 0.59448302402785813 0 0.71809016091162536 0.58185040402320831 0 0.77151014687832564 0.54436834383023036 0 0.7152569930854884 0.5237994455134295 0 0.69385896817107129 0.48377516041410151 0 0.73947346780852752 0.49062440112282169 0 0.15801167086041079 0.46008690540259539 0 0.191953871957803 0.42546416763755879 0 0.19604738184454831 0.47787523520405789 0 0.57667858002728545 0.078486105337742612 0 0.61940220174112337 0.047251958781050582 0 0.61956000905586006 0.1043312481793135 0 0.65408113592120842 0.073941773121567966 0 0.61956000905586006 0.1043312481793135 0 0.61940220174112337 0.047251958781050582 0 0 0.55000000000173355 0 0 0.50000000000205869 0 0.044576108720083309 0.53509043209532614 0 0.65507451745379841 0.92229208810758578 0 0.62065498684670595 0.95224934003983619 0 0.61885627562261258 0.90282959257498208 0 0.57724883562309992 0.92155686857100794 0 0.61885627562261258 0.90282959257498208 0 0.62065498684670595 0.95224934003983619 0 0.91750694127107502 0.36982372220068471 0 0.86844634540301924 0.38530937474099819 0 0.87430060258887643 0.34056085888204451 0 0.91750694127105259 0.63017627779935648 0 0.87712158428786946 0.65709029563313581 0 0.87159648282691515 0.61285406320581504 0 0.33123028043633618 0.77629643437932982 0 0.29904318922293632 0.74132814928635593 0 0.35415581127540569 0.73730480045900215 0 0.86411095495256451 0.42388805655111889 0 0.84925632466077294 0.45359738909549091 0 0.81973119833356312 0.43505687159469048 0 0.43846182030517877 0.64845797726506715 0 0.47913475093885149 0.66010775372412711 0 0.43323420005758778 0.6913544522562407 0 0.18269480424590959 0.75905448272264375 0 0.19068556247388771 0.71028988922845504 0 0.2248999640082178 0.72584299459689172 0 0.39536230704883951 0.84069429572832477 0 0.38586766253264881 0.78219501014812498 0 0.42609163930740518 0.80361684430568059 0 0.59999999999999976 0.69999999999999996 0 0.63221990677827677 0.73442891067859706 0 0.59636844454254345 0.75937156204589151 0 0.27866744612395528 0.38416094670951489 0 0.24049127783545701 0.41270748208749802 0 0.22033343844674469 0.36963382230740238 0 0.82709327591091286 0.84937141670920724 0 0.84725310900444062 0.80779732082917555 0 0.88088768115933802 0.84674609810493673 0 0.82709327591102189 0.14937141670914489 0 0.84725310900442086 0.10779732082922661 0 0.88088768115941807 0.14674609810479519 0 0.1650278706801647 0.38791388161335733 0 0.18434624290945251 0.35208838264196463 0 0.22033343844674469 0.36963382230740238 0 0.4409427642593301 0.35743108089689513 0 0.49077833859261139 0.35229981449445641 0 0.46655310992796922 0.39650496622958609 0 0.80185942888539485 0.77452061303608133 0 0.81864958914779962 0.73589050177899629 0 0.85491058998424563 0.76004753345552634 0 0.80185942888501827 0.074520613036224564 0 0.81864958914740749 0.035890501779055867 0 0.85491058998398861 0.060047533455626502 0 0.29999999999926641 0 0 0.34999999999912063 0 0 0.32541448401678508 0.046215317981507749 0 0.35000000000145642 1 0 0.30000000000124832 1 0 0.32544832635163229 0.95485394099568932 0 0.4656888918609538 0.78493261229743638 0 0.50731287292894423 0.78963574450233831 0 0.50627822638148745 0.8263979829520941 0 0.2185883431182947 0.18019736283949719 0 0.25557216766470708 0.15874861286892261 0 0.26429849586623999 0.19346700179430079 0 1 0.29999999999999999 0 1 0.34999999999993492 0 0.95780851984364423 0.34215720972155339 0 1 0.29999999999999999 0 0.95780851984364423 0.34215720972155339 0 0.94999999999999996 0.29999999999999999 0 1 0.69999999999999996 0 0.94999999999999996 0.69999999999999996 0 0.9578014258160763 0.65787212321113708 0 1 0.69999999999999996 0 0.9578014258160763 0.65787212321113708 0 1 0.64999999999986979 0 0.91750694127107502 0.36982372220068471 0 0.90594285160987287 0.4141265964174129 0 0.86844634540301924 0.38530937474099819 0 0.91750694127105259 0.63017627779935648 0 0.87159648282691515 0.61285406320581504 0 0.91143117093204207 0.58709913730335972 0 0.74999999999999989 0.69999999999999996 0 0.7750489929959945 0.66593931409600093 0 0.79999999999999982 0.69999999999999996 0 0.74999999999999989 0.29999999999999999 0 0.79999999999999982 0.29999999999999999 0 0.78145581580700685 0.34881365920033602 0 0.54999999999999993 0.69999999999999996 0 0.57484956128872922 0.66573805030881994 0 0.59999999999999976 0.69999999999999996 0 0.90299850604011456 0.79563452813489832 0 0.94399509803918602 0.75600490196082126 0 0.95386563387742829 0.80414874155775029 0 0.90416666666660628 0.9041666666666166 0 0.95391631417670719 0.89584263333814784 0 0.94399509803919068 0.9439950980391687 0 0.90299850604006393 0.09563452813493091 0 0.94399509803922566 0.056004901960802607 0 0.95386563387744361 0.1041487415577465 0 0.90416666666668166 0.20416666666667119 0 0.95391631417672862 0.19584263333809451 0 0.94399509803921056 0.24399509803922639 0 0.22278230690790279 0.44824268025881547 0 0.19604738184454831 0.47787523520405789 0 0.191953871957803 0.42546416763755879 0 0.90299850604011456 0.79563452813489832 0 0.89999166460796554 0.74528934923809909 0 0.94399509803918602 0.75600490196082126 0 0.90299850604006393 0.09563452813493091 0 0.899991664607802 0.045289349238254978 0 0.94399509803922566 0.056004901960802607 0 0.49102375406324739 0.49123754822244059 0 0.47793794143994173 0.52940715638744962 0 0.43507373378304309 0.49699695397193322 0 0.90416666666660628 0.9041666666666166 0 0.94399509803919068 0.9439950980391687 0 0.89898474358632463 0.95391965591118966 0 0.90416666666668166 0.20416666666667119 0 0.94399509803921056 0.24399509803922639 0 0.89898474358614167 0.25391965591104898 0 0.65394964615507722 0.22666784374016369 0 0.62657463266645097 0.26524202571255862 0 0.59814117807200873 0.23398510860739519 0 0.6084546825910605 0.37989672713932537 0 0.63912439215427275 0.41063340167983359 0 0.57744073070774993 0.41535148636609359 0 0.61209567303293111 0.44669033081290321 0 0.57744073070774993 0.41535148636609359 0 0.63912439215427275 0.41063340167983359 0 0.25676291524611189 0.7436741304886243 0 0.22556077506376701 0.77837424984191617 0 0.2248999640082178 0.72584299459689172 0 0.61343887413683884 0.856862479058357 0 0.60294066490120068 0.80851322453934582 0 0.65005442820240822 0.82644988530054031 0 0.64999999999907843 0 0 0.66369801598854572 0.036327466368102787 0 0.61940220174112337 0.047251958781050582 0 0.40326160981139969 0.73346192995102844 0 0.38586766253264881 0.78219501014812498 0 0.35415581127540569 0.73730480045900215 0 0.33123028043633618 0.77629643437932982 0 0.35415581127540569 0.73730480045900215 0 0.38586766253264881 0.78219501014812498 0 0.26573297623774761 0.59828298563722948 0 0.29110487519241501 0.56588143995431495 0 0.31502927232353312 0.6134992213375432 0 0.77846603114747959 0.49850927265137401 0 0.81441713509985358 0.51161854125224959 0 0.77151014687832564 0.54436834383023036 0 0.82862096804812391 0.55037090955459045 0 0.77151014687832564 0.54436834383023036 0 0.81441713509985358 0.51161854125224959 0 0.50000000000205869 1 0 0.45000000000187229 1 0 0.47135117303824892 0.95556877749289892 0 0.44999999999882923 0 0 0.49999999999869432 0 0 0.47040171442036788 0.044141676406503738 0 0 0.7000000000006934 0 0 0.65000000000104008 0 0.046634677244967337 0.671418230738282 0 0 0.35000000000145642 0 0 0.30000000000124832 0 0.046389130980076937 0.32668781832131749 0 0.31378396441836959 0.70157213313026345 0 0.27820712747429932 0.65530134213254643 0 0.32263089806001177 0.66003674931826484 0 0.33122374654748771 0.57588941099433744 0 0.31502927232353312 0.6134992213375432 0 0.29110487519241501 0.56588143995431495 0 0.26573297623774761 0.59828298563722948 0 0.27820712747429932 0.65530134213254643 0 0.2459498854893499 0.63248470766216769 0 0.14474682429600511 0.85524784522713515 0 0.16206583317966519 0.89685560785156404 0 0.1241151115713819 0.9045666525468371 0 0.14332333627550789 0.14578431753966009 0 0.12372429750337779 0.095814237875728972 0 0.16141998738593399 0.10404039647458049 0 0.64753070846764316 0.77332939069435502 0 0.59636844454254345 0.75937156204589151 0 0.63221990677827677 0.73442891067859706 0 0.14474682429600511 0.85524784522713515 0 0.1241151115713819 0.9045666525468371 0 0.10562472963403439 0.87143394428979881 0 0.14332333627550789 0.14578431753966009 0 0.1053400320299198 0.12877248826361379 0 0.12372429750337779 0.095814237875728972 0 0.77354604466818633 0.40378688774472771 0 0.81308179852519835 0.39754945808726527 0 0.81973119833356312 0.43505687159469048 0 0.54782696902220018 0.79245182748204157 0 0.50945740445113552 0.75476055527778108 0 0.55363780716230748 0.74348740161571747 0 0.2236846579037573 0.67380363126050236 0 0.2459498854893499 0.63248470766216769 0 0.27820712747429932 0.65530134213254643 0 0.77293540622714185 0.59448302402785813 0 0.74994237037456724 0.62775548192980357 0 0.71809016091162536 0.58185040402320831 0 0 0.79999999999999982 0 0 0.75000000000034661 0 0.04408157711937423 0.7728941757575627 0 0 0.25000000000104028 0 0 0.20000000000083221 0 0.044081577119474857 0.2271058242433576 0 0.19999999999955789 0 0 0.24999999999941211 0 0 0.22668068146512929 0.045875643423131329 0 0.25000000000104028 1 0 0.20000000000083221 1 0 0.22850979588452081 0.95594428570238643 0 0.47357141910802508 0.1873585799078378 0 0.44288491854585582 0.14116182884956319 0 0.48466639505193998 0.1421439844745814 0 0.59999999999999976 0.29999999999999999 0 0.5794309697024993 0.27124795968204829 0 0.62657463266645097 0.26524202571255862 0 0.43249999999999988 0.43937499999999979 0 0.42161023666869668 0.39493916313643851 0 0.46655310992796922 0.39650496622958609 0 0.31068898841644388 0.47541502461811092 0 0.33190227185843768 0.52715113583864037 0 0.28307294598219601 0.50789252727458634 0 0.35024835142131061 0.48654922671676981 0 0.33190227185843768 0.52715113583864037 0 0.31068898841644388 0.47541502461811092 0 0.35864735590330371 0.63903383440414463 0 0.36622285152418499 0.69092437780804039 0 0.32263089806001177 0.66003674931826484 0 0.31378396441836959 0.70157213313026345 0 0.32263089806001177 0.66003674931826484 0 0.36622285152418499 0.69092437780804039 0 0.86956835336234861 0.571283299838105 0 0.90900154012161016 0.53607784105648792 0 0.91143117093204207 0.58709913730335972 0 0.6499999999999998 0.29999999999999999 0 0.65481233915350323 0.35652751921065562 0 0.61959173890754571 0.33832250091341232 0 0.4409427642593301 0.35743108089689513 0 0.46226845272279993 0.31901800744800313 0 0.49077833859261139 0.35229981449445641 0 0.5 0.29999999999999999 0 0.49077833859261139 0.35229981449445641 0 0.46226845272279993 0.31901800744800313 0 0.14999999999970359 0 0 0.19999999999955789 0 0 0.184418230509967 0.038773194583122873 0 0.20000000000083221 1 0 0.15000000000062411 1 0 0.18474005699953849 0.96231585248064622 0 1 0.49999999999950101 0 1 0.54999999999963112 0 0.95631871884947484 0.51827533208233789 0 0.38586766253264881 0.78219501014812498 0 0.42676259796334498 0.76772545931379299 0 0.42609163930740518 0.80361684430568059 0 0.20050006573841939 0.53248514016039872 0 0.22549374774072969 0.58452645269293457 0 0.18381867841758909 0.57774125163628387 0 0.065374659239661639 0.8551091961254178 0 0.1074251789111534 0.83564394292147814 0 0.10562472963403439 0.87143394428979881 0 0.065374659239632718 0.1448908038746782 0 0.1053400320299198 0.12877248826361379 0 0.106902708054812 0.16453234188234539 0 0.1650278706801647 0.38791388161335733 0 0.14223753364722069 0.3341983344262433 0 0.18434624290945251 0.35208838264196463 0 0.43249999999999988 0.43937499999999979 0 0.46111841286828259 0.46690301029591341 0 0.43507373378304309 0.49699695397193322 0 0.83758014339878906 0.63222013025741819 0 0.81723410853263523 0.59419663659258926 0 0.87159648282691515 0.61285406320581504 0 0.19670163708476801 0.31472518408333222 0 0.18434624290945251 0.35208838264196463 0 0.14223753364722069 0.3341983344262433 0 0.75000000000034661 1 0 0.7250000000005199 0.94981617647078953 0 0.770759834363826 0.95919399014344442 0 0.74999999999999989 0.29999999999999999 0 0.72500000000000064 0.2498161764706 0 0.77075983436335049 0.25919399014334171 0 0.69999999999999984 0.29999999999999999 0 0.67933712972090698 0.25920070958121938 0 0.72500000000000064 0.2498161764706 0 0.57611405284611883 0.50165903596042916 0 0.53330375813596242 0.50827942741749099 0 0.53823865529665704 0.45873898050322898 0 0.6499999999999998 0.29999999999999999 0 0.68887083591306764 0.33632058575757479 0 0.65481233915350323 0.35652751921065562 0 0.27866744612395528 0.38416094670951489 0 0.33277555741076909 0.36432196682010132 0 0.31778888742534622 0.40581751814196781 0 0.49102375406324739 0.49123754822244059 0 0.43507373378304309 0.49699695397193322 0 0.46111841286828259 0.46690301029591341 0 0.94999999999999996 0.69999999999999996 0 0.97166519676947294 0.73337114490064459 0 0.94399509803918602 0.75600490196082126 0 0.94999999999986839 0 0 0.97166519676946894 0.033371144900598393 0 0.94399509803922566 0.056004901960802607 0 0.94999999999999996 0.29999999999999999 0 0.94399509803921056 0.24399509803922639 0 0.97166519676951801 0.26662885509932011 0 0.94999999999979179 1 0 0.94399509803919068 0.9439950980391687 0 0.97166519676946206 0.96662885509935492 0 0.34258405725730701 0.4444034294386992 0 0.29124338931648802 0.43334555462578611 0 0.31778888742534622 0.40581751814196781 0 0.27866744612395528 0.38416094670951489 0 0.31778888742534622 0.40581751814196781 0 0.29124338931648802 0.43334555462578611 0 0.36575549820117997 0.31677992835137742 0 0.33277555741076909 0.36432196682010132 0 0.32752639306529541 0.32610012995269699 0 0.35752321586431363 0.9185439911803448 0 0.32544832635163229 0.95485394099568932 0 0.30864387279288652 0.89906554525974958 0 0.27609987656793722 0.94991445621608572 0 0.30864387279288652 0.89906554525974958 0 0.32544832635163229 0.95485394099568932 0 0.33123028043633618 0.77629643437932982 0 0.30857225866488791 0.81101973481716805 0 0.2792923945214143 0.77665808831789485 0 0.33758650185219202 0.23837101504325639 0 0.29132859388405002 0.27203693976649962 0 0.28040350263641872 0.23054717217092141 0 0.4409427642593301 0.35743108089689513 0 0.41914690343363781 0.30688979866601612 0 0.46226845272279993 0.31901800744800313 0 0.14332333627550789 0.14578431753966009 0 0.13737030665753211 0.20313708640667491 0 0.106902708054812 0.16453234188234539 0 0.083105206071467416 0.20007701332709979 0 0.106902708054812 0.16453234188234539 0 0.13737030665753211 0.20313708640667491 0 0.083105206071452636 0.79992298667296435 0 0.1382744753146134 0.79650574229207483 0 0.1074251789111534 0.83564394292147814 0 0.14474682429600511 0.85524784522713515 0 0.1074251789111534 0.83564394292147814 0 0.1382744753146134 0.79650574229207483 0 0.65408113592120842 0.073941773121567966 0 0.7010294155333181 0.056779085686491267 0 0.68330259535470161 0.10038702501083881 0 0.72525833953073282 0.1032114801687094 0 0.68330259535470161 0.10038702501083881 0 0.7010294155333181 0.056779085686491267 0 0.049706944316475897 0.72477277076253799 0 0.046634677244967337 0.671418230738282 0 0.1020579365089687 0.69352219419301997 0 0.086179601630648681 0.64647209519980475 0 0.1020579365089687 0.69352219419301997 0 0.046634677244967337 0.671418230738282 0 0.087545339447545459 0.35122518864182262 0 0.046389130980076937 0.32668781832131749 0 0.093851963071650835 0.30582068233324772 0 0.049706944316556423 0.27522722923869108 0 0.093851963071650835 0.30582068233324772 0 0.046389130980076937 0.32668781832131749 0 0.82709327591091286 0.84937141670920724 0 0.80041942726660109 0.81543261647703358 0 0.84725310900444062 0.80779732082917555 0 0.82709327591102189 0.14937141670914489 0 0.80076557130237269 0.1154587552654202 0 0.84725310900442086 0.10779732082922661 0 0.17933913398461551 0.2350063570234002 0 0.14377654328998779 0.2442024734791064 0 0.13737030665753211 0.20313708640667491 0 0.18269480424590959 0.75905448272264375 0 0.1382744753146134 0.79650574229207483 0 0.14335651144331049 0.75565258250209677 0 0.33758650185219202 0.23837101504325639 0 0.3786248352540974 0.27082301512024259 0 0.33402499257867951 0.28911035184473982 0 0.14332333627550789 0.14578431753966009 0 0.18124454140915969 0.18790916706335251 0 0.13737030665753211 0.20313708640667491 0 0.14474682429600511 0.85524784522713515 0 0.1382744753146134 0.79650574229207483 0 0.17777405986036951 0.81832336108265358 0 0.5 0.29999999999999999 0 0.52752007115234678 0.33170632466418198 0 0.49077833859261139 0.35229981449445641 0 0.27866744612395528 0.38416094670951489 0 0.29644548887253103 0.34914008784168082 0 0.33277555741076909 0.36432196682010132 0 0 0.84999999999965292 0 0 0.79999999999999982 0 0.038512288486097702 0.8155852717111195 0 0 0.20000000000083221 0 0 0.15000000000062411 0 0.038512288486115001 0.1844147282893184 0 0.40326160981139969 0.73346192995102844 0 0.35415581127540569 0.73730480045900215 0 0.36622285152418499 0.69092437780804039 0 0.91696753777131557 0.497780560203536 0 0.96228564064454991 0.48206450662049471 0 0.95631871884947484 0.51827533208233789 0 0.33758650185219202 0.23837101504325639 0 0.31255190597181792 0.19850845631528771 0 0.3572130504031617 0.1874703368446563 0 0.59814117807200873 0.23398510860739519 0 0.62657463266645097 0.26524202571255862 0 0.5794309697024993 0.27124795968204829 0 0.34258405725730701 0.4444034294386992 0 0.31068898841644388 0.47541502461811092 0 0.29124338931648802 0.43334555462578611 0 0.38083244760691543 0.38531983672244652 0 0.35221190152536241 0.40457127605439203 0 0.33277555741076909 0.36432196682010132 0 0.083411279318375747 0.91030024466934134 0 0.10266856499240549 0.95548163909968886 0 0.053064897599294662 0.95186845269532028 0 0.083411279318303222 0.089699755330707398 0 0.053064897599215843 0.048131547304697528 0 0.10266856499169109 0.044518360900210059 0 0.42377727103934271 0.25099357235810238 0 0.4604742573284204 0.27846934318264788 0 0.41914690343363781 0.30688979866601612 0 0.28307294598219601 0.50789252727458634 0 0.25982634974572738 0.46097799597715272 0 0.31068898841644388 0.47541502461811092 0 0.29348325746214782 0.31350119524708198 0 0.29132859388405002 0.27203693976649962 0 0.33402499257867951 0.28911035184473982 0 0.35312867752657662 0.084946736076730367 0 0.39823268594401579 0.1116623613130045 0 0.36246644853392812 0.1399454205365751 0 0.7000000000006934 1 0 0.68015064798562208 0.95924320340003011 0 0.7250000000005199 0.94981617647078953 0 0.42377727103934271 0.25099357235810238 0 0.38831533174504851 0.2189834941785925 0 0.42905200079338551 0.19982395548231649 0 0.53823865529665704 0.45873898050322898 0 0.57744073070774993 0.41535148636609359 0 0.57975577671020095 0.46172033326338591 0 0.33758650185219202 0.23837101504325639 0 0.3572130504031617 0.1874703368446563 0 0.38831533174504851 0.2189834941785925 0 0.29124338931648802 0.43334555462578611 0 0.31068898841644388 0.47541502461811092 0 0.25982634974572738 0.46097799597715272 0 0.6084546825910605 0.37989672713932537 0 0.61959173890754571 0.33832250091341232 0 0.65481233915350323 0.35652751921065562 0 0.40326160981139969 0.73346192995102844 0 0.43323420005758778 0.6913544522562407 0 0.45582236402875981 0.73896743678908217 0 0.33758650185219202 0.23837101504325639 0 0.28040350263641872 0.23054717217092141 0 0.31255190597181792 0.19850845631528771 0 0.79999999999999982 1 0 0.75000000000034661 1 0 0.770759834363826 0.95919399014344442 0 0.74999999999999989 0.29999999999999999 0 0.77075983436335049 0.25919399014334171 0 0.79999999999999982 0.29999999999999999 0 0.6499999999999998 0.29999999999999999 0 0.67933712972090698 0.25920070958121938 0 0.69999999999999984 0.29999999999999999 0 0.39536230704883951 0.84069429572832477 0 0.39767323751400468 0.89584229130535065 0 0.35864759629805099 0.87963482415279515 0 0.54999999999999993 0.69999999999999996 0 0.52584555706968406 0.66664215091846768 0 0.57484956128872922 0.66573805030881994 0 0.35312867752657662 0.084946736076730367 0 0.32541448401678508 0.046215317981507749 0 0.3615861437013822 0.03582617922508851 0 0.35752321586431363 0.9185439911803448 0 0.36184234618600131 0.96443954459096326 0 0.32544832635163229 0.95485394099568932 0 0.35312867752657662 0.084946736076730367 0 0.3615861437013822 0.03582617922508851 0 0.39591832466117061 0.056982757562006353 0 0.35752321586431363 0.9185439911803448 0 0.39641108128798319 0.94356127926187128 0 0.36184234618600131 0.96443954459096326 0 0.083411279318303222 0.089699755330707398 0 0.044310582753132287 0.101412518374475 0 0.053064897599215843 0.048131547304697528 0 0.083411279318375747 0.91030024466934134 0 0.053064897599294662 0.95186845269532028 0 0.0443105827531413 0.89858748162559932 0 0.38083244760691543 0.38531983672244652 0 0.40076539126862748 0.34589349467022118 0 0.42161023666869668 0.39493916313643851 0 0.4409427642593301 0.35743108089689513 0 0.42161023666869668 0.39493916313643851 0 0.40076539126862748 0.34589349467022118 0 0.79999999999999982 0.29999999999999999 0 0.82500000000000062 0.33010209762754811 0 0.78145581580700685 0.34881365920033602 0 0.79999999999999982 0.69999999999999996 0 0.7750489929959945 0.66593931409600093 0 0.82457059160610424 0.66831947184359608 0 0.59999999999999976 0.69999999999999996 0 0.57484956128872922 0.66573805030881994 0 0.62460753523532009 0.66851202781000296 0 0.74999999999999989 0.69999999999999996 0 0.72500000000000064 0.67022701834392062 0 0.7750489929959945 0.66593931409600093 0 0.74999999999999989 0.29999999999999999 0 0.78145581580700685 0.34881365920033602 0 0.73090396928863699 0.33699297293167962 0 0.33758650185219202 0.23837101504325639 0 0.33402499257867951 0.28911035184473982 0 0.29132859388405002 0.27203693976649962 0 0.36575549820117997 0.31677992835137742 0 0.41914690343363781 0.30688979866601612 0 0.40076539126862748 0.34589349467022118 0 0.4409427642593301 0.35743108089689513 0 0.40076539126862748 0.34589349467022118 0 0.41914690343363781 0.30688979866601612 0 0.34258405725730701 0.4444034294386992 0 0.38707855792647411 0.42299362914874578 0 0.3908716102680424 0.47010282357248828 0 0.7000000000006934 1 0 0.65000000000104008 1 0 0.68015064798562208 0.95924320340003011 0 0.49102375406324739 0.49123754822244059 0 0.46111841286828259 0.46690301029591341 0 0.48858720058566618 0.43964267759203868 0 0.4656888918609538 0.78493261229743638 0 0.42676259796334498 0.76772545931379299 0 0.45582236402875981 0.73896743678908217 0 0.40326160981139969 0.73346192995102844 0 0.45582236402875981 0.73896743678908217 0 0.42676259796334498 0.76772545931379299 0 0.59999999999999976 0.29999999999999999 0 0.62657463266645097 0.26524202571255862 0 0.6499999999999998 0.29999999999999999 0 0.40000000000166441 1 0 0.36184234618600131 0.96443954459096326 0 0.39641108128798319 0.94356127926187128 0 0.3999999999989749 0 0 0.39591832466117061 0.056982757562006353 0 0.3615861437013822 0.03582617922508851 0 0.43249999999999988 0.43937499999999979 0 0.48858720058566618 0.43964267759203868 0 0.46111841286828259 0.46690301029591341 0 0.7250000000005199 0.89375000000045834 0 0.7250000000005199 0.94981617647078953 0 0.68987011941058407 0.92105047536677087 0 0.7250000000005199 0.89375000000045834 0 0.75729602384198635 0.92353652857884294 0 0.7250000000005199 0.94981617647078953 0 0.72500000000001008 0.19776155966387679 0 0.75668890529066124 0.2244279804069782 0 0.72500000000000064 0.2498161764706 0 0.72500000000001008 0.19776155966387679 0 0.72500000000000064 0.2498161764706 0 0.69397719155551807 0.2245125647000914 0 0.79999999999999982 0.29999999999999999 0 0.81486180804364938 0.26321394949780091 0 0.84999999999999987 0.29999999999999999 0 0.84999999999965292 1 0 0.79999999999999982 1 0 0.81486180804382891 0.96321394949790495 0 0.1247745017231483 0.27198077544791172 0 0.095326043202144745 0.24554465089224409 0 0.14377654328998779 0.2442024734791064 0 0.1215415378367805 0.72939333680004137 0 0.14335651144331049 0.75565258250209677 0 0.090953281884486245 0.7564451946902494 0 0.72500000000001008 0.19776155966387679 0 0.72634814642510737 0.16106886917518889 0 0.76587607630038135 0.18880039518954719 0 0.72500000000001008 0.19776155966387679 0 0.6865991819015953 0.189116534044597 0 0.72634814642510737 0.16106886917518889 0 0.77144070960558853 0.14311854477243749 0 0.76587607630038135 0.18880039518954719 0 0.72634814642510737 0.16106886917518889 0 0.68391457121233579 0.14440470121196541 0 0.72634814642510737 0.16106886917518889 0 0.6865991819015953 0.189116534044597 0 0.7250000000005199 0.89375000000045834 0 0.72863726579783861 0.85390518901155588 0 0.76891166905518427 0.88835469571185499 0 0.76901770135486491 0.84293557325473656 0 0.76891166905518427 0.88835469571185499 0 0.72863726579783861 0.85390518901155588 0 0 0.20000000000083221 0 0.038512288486115001 0.1844147282893184 0 0.044081577119474857 0.2271058242433576 0 0 0.79999999999999982 0 0.04408157711937423 0.7728941757575627 0 0.038512288486097702 0.8155852717111195 0 0.52375890611712683 0.059318771819432882 0 0.47881186583059909 0.093591717165689425 0 0.47040171442036788 0.044141676406503738 0 0.52122150208832174 0.94089974453840242 0 0.47135117303824892 0.95556877749289892 0 0.47401147028110507 0.91529957330468115 0 0.27474541102162192 0.11822029332053539 0 0.3096713403101819 0.085471541595262421 0 0.32215584939770009 0.1218492143506909 0 0.22278230690790279 0.44824268025881547 0 0.24049127783545701 0.41270748208749802 0 0.25982634974572738 0.46097799597715272 0 0.93732437411268477 0.55911392101136159 0 0.91143117093204207 0.58709913730335972 0 0.90900154012161016 0.53607784105648792 0 0.19901705110390991 0.9175543425573498 0 0.24536017905392571 0.90704567837671446 0 0.22850979588452081 0.95594428570238643 0 0.27609987656793722 0.94991445621608572 0 0.22850979588452081 0.95594428570238643 0 0.24536017905392571 0.90704567837671446 0 0.15720202157091859 0.60665697304410315 0 0.1241190223511371 0.64391885572885044 0 0.1024350934457823 0.60772393977513839 0 0.6499999999999998 0.69999999999999996 0 0.675261390228442 0.65996937624687813 0 0.69999999999999984 0.69999999999999996 0 0.3999999999989749 0 0 0.4320097814748517 0.037406712692169303 0 0.39591832466117061 0.056982757562006353 0 0.40000000000166441 1 0 0.39641108128798319 0.94356127926187128 0 0.4308986359464303 0.96395712492906194 0 0.54999999999999993 0.29999999999999999 0 0.56836770495988642 0.3523062350852913 0 0.52752007115234678 0.33170632466418198 0 0.14474682429600511 0.85524784522713515 0 0.17777405986036951 0.81832336108265358 0 0.19741632902693801 0.86755867406447229 0 0.21858834311891909 0.81980263716112767 0 0.19741632902693801 0.86755867406447229 0 0.17777405986036951 0.81832336108265358 0 0.54782696902220018 0.79245182748204157 0 0.50731287292894423 0.78963574450233831 0 0.50945740445113552 0.75476055527778108 0 0.20000000000083221 1 0 0.18474005699953849 0.96231585248064622 0 0.22850979588452081 0.95594428570238643 0 0.19999999999955789 0 0 0.22668068146512929 0.045875643423131329 0 0.184418230509967 0.038773194583122873 0 0.77846603114747959 0.49850927265137401 0 0.73947346780852752 0.49062440112282169 0 0.77972660463949339 0.45529290596363098 0 0.73483647259922602 0.44789725365921768 0 0.77972660463949339 0.45529290596363098 0 0.73947346780852752 0.49062440112282169 0 0.34258405725730701 0.4444034294386992 0 0.35024835142131061 0.48654922671676981 0 0.31068898841644388 0.47541502461811092 0 0.33123028043633618 0.77629643437932982 0 0.2792923945214143 0.77665808831789485 0 0.29904318922293632 0.74132814928635593 0 0.26573297623774761 0.59828298563722948 0 0.25115337790845271 0.54719303014923271 0 0.29110487519241501 0.56588143995431495 0 0.4656888918609538 0.78493261229743638 0 0.50945740445113552 0.75476055527778108 0 0.50731287292894423 0.78963574450233831 0 0.35312867752657662 0.084946736076730367 0 0.36246644853392812 0.1399454205365751 0 0.32215584939770009 0.1218492143506909 0 0.29348325746214782 0.31350119524708198 0 0.25966125648670141 0.34351016742083729 0 0.24432083401701241 0.3006253385567515 0 0.59999999999999976 0.69999999999999996 0 0.6499999999999998 0.69999999999999996 0 0.63221990677827677 0.73442891067859706 0 0.69999999999921003 0 0 0.7010294155333181 0.056779085686491267 0 0.66369801598854572 0.036327466368102787 0 0.40000000000166441 1 0 0.35000000000145642 1 0 0.36184234618600131 0.96443954459096326 0 0.34999999999912063 0 0 0.3999999999989749 0 0 0.3615861437013822 0.03582617922508851 0 0.43507373378304309 0.49699695397193322 0 0.47793794143994173 0.52940715638744962 0 0.42644501560315817 0.54603747078095544 0 0.14474682429600511 0.85524784522713515 0 0.19741632902693801 0.86755867406447229 0 0.16206583317966519 0.89685560785156404 0 0.19901705110390991 0.9175543425573498 0 0.16206583317966519 0.89685560785156404 0 0.19741632902693801 0.86755867406447229 0 0.35864735590330371 0.63903383440414463 0 0.3977710372045391 0.65868194622830212 0 0.36622285152418499 0.69092437780804039 0 0.7527966693318906 0.053051678021508272 0 0.7010294155333181 0.056779085686491267 0 0.72683645290270404 0.027797073151180601 0 0.71508799138962864 0.36622814920737751 0 0.72622533758026719 0.40265885511101601 0 0.68128176404677243 0.38629093627004979 0 0.79999999999999982 0.69999999999999996 0 0.84999999999999987 0.69999999999999996 0 0.81864958914779962 0.73589050177899629 0 0.79999999999947335 0 0 0.84999999999960507 0 0 0.81864958914740749 0.035890501779055867 0 0.39536230704883951 0.84069429572832477 0 0.35642984951668422 0.80994399665655703 0 0.38586766253264881 0.78219501014812498 0 0.42377727103934271 0.25099357235810238 0 0.46429753744194407 0.22870891180733599 0 0.4604742573284204 0.27846934318264788 0 0.39801143831225599 0.16651381068160659 0 0.42905200079338551 0.19982395548231649 0 0.38831533174504851 0.2189834941785925 0 0.79999999999999982 1 0 0.770759834363826 0.95919399014344442 0 0.81486180804382891 0.96321394949790495 0 0.79999999999999982 0.29999999999999999 0 0.77075983436335049 0.25919399014334171 0 0.81486180804364938 0.26321394949780091 0 0.25195515620380449 0.25883339815888678 0 0.21049769590865089 0.26857363548218488 0 0.224700362040408 0.22206622194729711 0 0.40326160981139969 0.73346192995102844 0 0.42676259796334498 0.76772545931379299 0 0.38586766253264881 0.78219501014812498 0 0.35312867752657662 0.084946736076730367 0 0.3096713403101819 0.085471541595262421 0 0.32541448401678508 0.046215317981507749 0 0.59999999999999976 0.29999999999999999 0 0.6499999999999998 0.29999999999999999 0 0.61959173890754571 0.33832250091341232 0 0.2185883431182947 0.18019736283949719 0 0.18652628422869419 0.14162325200928061 0 0.22985637510995899 0.1298347970200906 0 0.64999999999907843 0 0 0.69999999999921003 0 0 0.66369801598854572 0.036327466368102787 0 0.27499999999933927 0.060310814194988557 0 0.24218496799700481 0.089025544070598317 0 0.22668068146512929 0.045875643423131329 0 0.19922788606653311 0.085920220746880993 0 0.22668068146512929 0.045875643423131329 0 0.24218496799700481 0.089025544070598317 0 0.65507451745379841 0.92229208810758578 0 0.66412543161245952 0.88015090885499059 0 0.68987011941058407 0.92105047536677087 0 0.049706944316475897 0.72477277076253799 0 0.090953281884486245 0.7564451946902494 0 0.04408157711937423 0.7728941757575627 0 0.083105206071452636 0.79992298667296435 0 0.04408157711937423 0.7728941757575627 0 0.090953281884486245 0.7564451946902494 0 0.083105206071467416 0.20007701332709979 0 0.095326043202144745 0.24554465089224409 0 0.044081577119474857 0.2271058242433576 0 0.049706944316556423 0.27522722923869108 0 0.044081577119474857 0.2271058242433576 0 0.095326043202144745 0.24554465089224409 0 0.36575549820117997 0.31677992835137742 0 0.33402499257867951 0.28911035184473982 0 0.3786248352540974 0.27082301512024259 0 0.53245488764484505 0.55078124999999989 0 0.53330375813596242 0.50827942741749099 0 0.57435499076887508 0.54267261987897775 0 0.57611405284611883 0.50165903596042916 0 0.57435499076887508 0.54267261987897775 0 0.53330375813596242 0.50827942741749099 0 0.6499999999999998 0.29999999999999999 0 0.69999999999999984 0.29999999999999999 0 0.68887083591306764 0.33632058575757479 0 0.57611405284611883 0.50165903596042916 0 0.53823865529665704 0.45873898050322898 0 0.57975577671020095 0.46172033326338591 0 0.7750489929959945 0.66593931409600093 0 0.72500000000000064 0.67022701834392062 0 0.74994237037456724 0.62775548192980357 0 0.78145581580700685 0.34881365920033602 0 0.74764719760526988 0.3719647154012321 0 0.73090396928863699 0.33699297293167962 0 0.3999999999989749 0 0 0.44999999999882923 0 0 0.4320097814748517 0.037406712692169303 0 0.45000000000187229 1 0 0.40000000000166441 1 0 0.4308986359464303 0.96395712492906194 0 0.57484956128872922 0.66573805030881994 0 0.5991018319127801 0.62925360607495295 0 0.62460753523532009 0.66851202781000296 0 0.7750489929959945 0.66593931409600093 0 0.79884539758237771 0.62875045078114233 0 0.82457059160610424 0.66831947184359608 0 0.39801143831225599 0.16651381068160659 0 0.36246644853392812 0.1399454205365751 0 0.39823268594401579 0.1116623613130045 0 0.078358742472063481 0.43365249433908948 0 0.033550201249889847 0.46247875832467239 0 0.035463093262830522 0.42673416072819947 0 0.25676291524611189 0.7436741304886243 0 0.2792923945214143 0.77665808831789485 0 0.22556077506376701 0.77837424984191617 0 0.2236846579037573 0.67380363126050236 0 0.2248999640082178 0.72584299459689172 0 0.19068556247388771 0.71028988922845504 0 0.50715858906372158 0.63295939104129484 0 0.5166924242153631 0.59825134841919447 0 0.5498280205245758 0.6290146943450976 0 0.14618258501891079 0.062070108745602003 0 0.12372429750337779 0.095814237875728972 0 0.10266856499169109 0.044518360900210059 0 0.083411279318303222 0.089699755330707398 0 0.10266856499169109 0.044518360900210059 0 0.12372429750337779 0.095814237875728972 0 0.083411279318375747 0.91030024466934134 0 0.1241151115713819 0.9045666525468371 0 0.10266856499240549 0.95548163909968886 0 0.14617343800780541 0.93808063414349496 0 0.10266856499240549 0.95548163909968886 0 0.1241151115713819 0.9045666525468371 0 0.5499999999988151 0 0 0.59999999999894682 0 0 0.57396793757665954 0.037011367187645222 0 0.54782696902220018 0.79245182748204157 0 0.50627822638148745 0.8263979829520941 0 0.50731287292894423 0.78963574450233831 0 0.6499999999999998 0.29999999999999999 0 0.62657463266645097 0.26524202571255862 0 0.67933712972090698 0.25920070958121938 0 0.86956835336234861 0.571283299838105 0 0.86907294890112186 0.52008116128001669 0 0.90900154012161016 0.53607784105648792 0 0.17933913398461551 0.2350063570234002 0 0.224700362040408 0.22206622194729711 0 0.21049769590865089 0.26857363548218488 0 0.43249999999999988 0.43937499999999979 0 0.3908716102680424 0.47010282357248828 0 0.38707855792647411 0.42299362914874578 0 0.27474541102162192 0.11822029332053539 0 0.22985637510995899 0.1298347970200906 0 0.24218496799700481 0.089025544070598317 0 0.64753070846764316 0.77332939069435502 0 0.66427993341343905 0.73232764502436276 0 0.6916490518212759 0.75387992374886192 0 0 0.40000000000166441 0 0.050583896093752537 0.38543522283434112 0 0.035463093262830522 0.42673416072819947 0 0.73483647259922602 0.44789725365921768 0 0.73947346780852752 0.49062440112282169 0 0.69385896817107129 0.48377516041410151 0 0.57484956128872922 0.66573805030881994 0 0.52584555706968406 0.66664215091846768 0 0.5498280205245758 0.6290146943450976 0 0.60000000000138687 1 0 0.55000000000173355 1 0 0.57382506491224949 0.9629411906298494 0 0.068743045408989428 0.48853989837882689 0 0.085622222639554768 0.53333248912060549 0 0.044576108720083309 0.53509043209532614 0 0.083105206071467416 0.20007701332709979 0 0.044081577119474857 0.2271058242433576 0 0.038512288486115001 0.1844147282893184 0 0.083105206071452636 0.79992298667296435 0 0.038512288486097702 0.8155852717111195 0 0.04408157711937423 0.7728941757575627 0 0.28307294598219601 0.50789252727458634 0 0.23975172658309729 0.49475499200540818 0 0.25982634974572738 0.46097799597715272 0 0.43698630808430822 0.080423614171545449 0 0.39591832466117061 0.056982757562006353 0 0.4320097814748517 0.037406712692169303 0 0.4367309254023824 0.92065556789053882 0 0.4308986359464303 0.96395712492906194 0 0.39641108128798319 0.94356127926187128 0 0.80185942888539485 0.77452061303608133 0 0.75841349681148107 0.75422312624214749 0 0.78578450296893509 0.73292684821144505 0 0.80185942888501827 0.074520613036224564 0 0.7527966693318906 0.053051678021508272 0 0.78393852574753176 0.032039079577822822 0 0.6499999999999998 0.69999999999999996 0 0.62460753523532009 0.66851202781000296 0 0.675261390228442 0.65996937624687813 0 0.33123028043633618 0.77629643437932982 0 0.38586766253264881 0.78219501014812498 0 0.35642984951668422 0.80994399665655703 0 0.6405463747586706 0.63290524857395714 0 0.675261390228442 0.65996937624687813 0 0.62460753523532009 0.66851202781000296 0 0.22278230690790279 0.44824268025881547 0 0.191953871957803 0.42546416763755879 0 0.24049127783545701 0.41270748208749802 0 0.077693244765132896 0.56932317963405099 0 0.050069554451969707 0.61308520079857043 0 0.034381862692950467 0.57372682250960894 0 0.25195515620380449 0.25883339815888678 0 0.24432083401701241 0.3006253385567515 0 0.21049769590865089 0.26857363548218488 0 0.46666084890304671 0.57634471035397938 0 0.5166924242153631 0.59825134841919447 0 0.47095389620662098 0.61892551373708504 0 0.50715858906372158 0.63295939104129484 0 0.47095389620662098 0.61892551373708504 0 0.5166924242153631 0.59825134841919447 0 0.72525833953073282 0.1032114801687094 0 0.7527966693318906 0.053051678021508272 0 0.76878382444651716 0.097147941686331368 0 0.80185942888501827 0.074520613036224564 0 0.76878382444651716 0.097147941686331368 0 0.7527966693318906 0.053051678021508272 0 0.72500000000000064 0.7952620967744265 0 0.75841349681148107 0.75422312624214749 0 0.77094201086366854 0.79647480515688507 0 0.80185942888539485 0.77452061303608133 0 0.77094201086366854 0.79647480515688507 0 0.75841349681148107 0.75422312624214749 0 0.72500000000000064 0.7952620967744265 0 0.68024162096458085 0.79868546898116533 0 0.6916490518212759 0.75387992374886192 0 0.64753070846764316 0.77332939069435502 0 0.6916490518212759 0.75387992374886192 0 0.68024162096458085 0.79868546898116533 0 0 0.50000000000205869 0 0 0.45000000000187229 0 0.033550201249889847 0.46247875832467239 0 0.69999999999999984 0.69999999999999996 0 0.675261390228442 0.65996937624687813 0 0.72500000000000064 0.67022701834392062 0 0.71406021706547751 0.63292083137662503 0 0.72500000000000064 0.67022701834392062 0 0.675261390228442 0.65996937624687813 0 0.65408113592120842 0.073941773121567966 0 0.61940220174112337 0.047251958781050582 0 0.66369801598854572 0.036327466368102787 0 0.59999999999894682 0 0 0.61940220174112337 0.047251958781050582 0 0.57396793757665954 0.037011367187645222 0 0.60000000000138687 1 0 0.57382506491224949 0.9629411906298494 0 0.62065498684670595 0.95224934003983619 0 0.33122374654748771 0.57588941099433744 0 0.35765792684946668 0.6000687869219653 0 0.31502927232353312 0.6134992213375432 0 0.35864735590330371 0.63903383440414463 0 0.31502927232353312 0.6134992213375432 0 0.35765792684946668 0.6000687869219653 0 0.15801167086041079 0.46008690540259539 0 0.19604738184454831 0.47787523520405789 0 0.16618607197337229 0.50652878253548905 0 0.078358742472063481 0.43365249433908948 0 0.035463093262830522 0.42673416072819947 0 0.050583896093752537 0.38543522283434112 0 0.19901705110390991 0.9175543425573498 0 0.22850979588452081 0.95594428570238643 0 0.18474005699953849 0.96231585248064622 0 0.19922788606653311 0.085920220746880993 0 0.184418230509967 0.038773194583122873 0 0.22668068146512929 0.045875643423131329 0 0.19922788606653311 0.085920220746880993 0 0.24218496799700481 0.089025544070598317 0 0.22985637510995899 0.1298347970200906 0 0.74999999999999989 0.69999999999999996 0 0.78578450296893509 0.73292684821144505 0 0.75841349681148107 0.75422312624214749 0 0.74999999999934175 0 0 0.78393852574753176 0.032039079577822822 0 0.7527966693318906 0.053051678021508272 0 0 0.60000000000138687 0 0.034381862692950467 0.57372682250960894 0 0.050069554451969707 0.61308520079857043 0 0.2236846579037573 0.67380363126050236 0 0.26439878998046262 0.7048065392091396 0 0.2248999640082178 0.72584299459689172 0 0.6236733212988993 0.14864538214901801 0 0.58516465772821369 0.11653801664834119 0 0.61956000905586006 0.1043312481793135 0 0.26104540868854792 0.81401944968719064 0 0.2792923945214143 0.77665808831789485 0 0.30857225866488791 0.81101973481716805 0 0.42377727103934271 0.25099357235810238 0 0.42905200079338551 0.19982395548231649 0 0.46429753744194407 0.22870891180733599 0 0.27820712747429932 0.65530134213254643 0 0.31502927232353312 0.6134992213375432 0 0.32263089806001177 0.66003674931826484 0 0.61343887413683884 0.856862479058357 0 0.61885627562261258 0.90282959257498208 0 0.5832743223239254 0.88483152652961872 0 0.43698630808430822 0.080423614171545449 0 0.47040171442036788 0.044141676406503738 0 0.47881186583059909 0.093591717165689425 0 0.4367309254023824 0.92065556789053882 0 0.47401147028110507 0.91529957330468115 0 0.47135117303824892 0.95556877749289892 0 0.91696753777131557 0.497780560203536 0 0.95631871884947484 0.51827533208233789 0 0.90900154012161016 0.53607784105648792 0 0.93732437411268477 0.55911392101136159 0 0.90900154012161016 0.53607784105648792 0 0.95631871884947484 0.51827533208233789 0 0.27474541102162192 0.11822029332053539 0 0.25557216766470708 0.15874861286892261 0 0.22985637510995899 0.1298347970200906 0 0.2185883431182947 0.18019736283949719 0 0.22985637510995899 0.1298347970200906 0 0.25557216766470708 0.15874861286892261 0 0.29348325746214782 0.31350119524708198 0 0.33402499257867951 0.28911035184473982 0 0.32752639306529541 0.32610012995269699 0 0.27499999999933927 0.060310814194988557 0 0.32541448401678508 0.046215317981507749 0 0.3096713403101819 0.085471541595262421 0 0.27270076654418179 0.87751467830216623 0 0.24536017905392571 0.90704567837671446 0 0.2401283238295133 0.85648409884788523 0 1 0.44999999999963131 0 1 0.49999999999950101 0 0.96228564064454991 0.48206450662049471 0 0.61343887413683884 0.856862479058357 0 0.66412543161245952 0.88015090885499059 0 0.61885627562261258 0.90282959257498208 0 0 0.45000000000187229 0 0 0.40000000000166441 0 0.035463093262830522 0.42673416072819947 0 0.69999999999999984 0.69999999999999996 0 0.6916490518212759 0.75387992374886192 0 0.66427993341343905 0.73232764502436276 0 0.43846182030517877 0.64845797726506715 0 0.43323420005758778 0.6913544522562407 0 0.3977710372045391 0.65868194622830212 0 0.4367309254023824 0.92065556789053882 0 0.44003836461056539 0.88093474584252718 0 0.47401147028110507 0.91529957330468115 0 0.43846182030517877 0.64845797726506715 0 0.39743091024207589 0.6239520004230239 0 0.43545892161006339 0.61093128915313821 0 0.43846182030517877 0.64845797726506715 0 0.3977710372045391 0.65868194622830212 0 0.39743091024207589 0.6239520004230239 0 0.26429849586623999 0.19346700179430079 0 0.29336099386129338 0.15892013001050981 0 0.31255190597181792 0.19850845631528771 0 0.19670163708476801 0.31472518408333222 0 0.21049769590865089 0.26857363548218488 0 0.24432083401701241 0.3006253385567515 0 0.57724883562309992 0.92155686857100794 0 0.62065498684670595 0.95224934003983619 0 0.57382506491224949 0.9629411906298494 0 0.4409427642593301 0.35743108089689513 0 0.46655310992796922 0.39650496622958609 0 0.42161023666869668 0.39493916313643851 0 0.46666084890304671 0.57634471035397938 0 0.47095389620662098 0.61892551373708504 0 0.43545892161006339 0.61093128915313821 0 0.6879972333610942 0.43038561374960838 0 0.65178832218679827 0.45929119821019959 0 0.63912439215427275 0.41063340167983359 0 0.43698630808430822 0.080423614171545449 0 0.4320097814748517 0.037406712692169303 0 0.47040171442036788 0.044141676406503738 0 0.4367309254023824 0.92065556789053882 0 0.47135117303824892 0.95556877749289892 0 0.4308986359464303 0.96395712492906194 0 0.79680861578988083 0.92656778056766709 0 0.81486180804382891 0.96321394949790495 0 0.770759834363826 0.95919399014344442 0 0.79680861578956375 0.22656778056752541 0 0.81486180804364938 0.26321394949780091 0 0.77075983436335049 0.25919399014334171 0 0.71508799138962864 0.36622814920737751 0 0.68128176404677243 0.38629093627004979 0 0.68887083591306764 0.33632058575757479 0 0.35864735590330371 0.63903383440414463 0 0.32263089806001177 0.66003674931826484 0 0.31502927232353312 0.6134992213375432 0 0.21858834311891909 0.81980263716112767 0 0.2401283238295133 0.85648409884788523 0 0.19741632902693801 0.86755867406447229 0 0.35312867752657662 0.084946736076730367 0 0.32215584939770009 0.1218492143506909 0 0.3096713403101819 0.085471541595262421 0 0.35752321586431363 0.9185439911803448 0 0.35864759629805099 0.87963482415279515 0 0.39767323751400468 0.89584229130535065 0 0.41914690343363781 0.30688979866601612 0 0.4604742573284204 0.27846934318264788 0 0.46226845272279993 0.31901800744800313 0 0.33084213324567391 0.16272720141332131 0 0.32215584939770009 0.1218492143506909 0 0.36246644853392812 0.1399454205365751 0 0.46666084890304671 0.57634471035397938 0 0.42644501560315817 0.54603747078095544 0 0.47793794143994173 0.52940715638744962 0 0 0.60000000000138687 0 0 0.55000000000173355 0 0.034381862692950467 0.57372682250960894 0 0.77354604466818633 0.40378688774472771 0 0.74764719760526988 0.3719647154012321 0 0.78145581580700685 0.34881365920033602 0 0.34999999999912063 0 0 0.3615861437013822 0.03582617922508851 0 0.32541448401678508 0.046215317981507749 0 0.35000000000145642 1 0 0.32544832635163229 0.95485394099568932 0 0.36184234618600131 0.96443954459096326 0 0.57667858002728545 0.078486105337742612 0 0.57396793757665954 0.037011367187645222 0 0.61940220174112337 0.047251958781050582 0 0.47357141910802508 0.1873585799078378 0 0.50760557329222289 0.20700468884612061 0 0.46429753744194407 0.22870891180733599 0 0.49695729691142171 0.25014895411178018 0 0.46429753744194407 0.22870891180733599 0 0.50760557329222289 0.20700468884612061 0 0.33084213324567391 0.16272720141332131 0 0.3572130504031617 0.1874703368446563 0 0.31255190597181792 0.19850845631528771 0 0.6879972333610942 0.43038561374960838 0 0.63912439215427275 0.41063340167983359 0 0.68128176404677243 0.38629093627004979 0 0.65408113592120842 0.073941773121567966 0 0.65290632656860115 0.11434202593454081 0 0.61956000905586006 0.1043312481793135 0 0.33084213324567391 0.16272720141332131 0 0.31255190597181792 0.19850845631528771 0 0.29336099386129338 0.15892013001050981 0 0.61209567303293111 0.44669033081290321 0 0.63912439215427275 0.41063340167983359 0 0.65178832218679827 0.45929119821019959 0 0.086179601630648681 0.64647209519980475 0 0.1024350934457823 0.60772393977513839 0 0.1241190223511371 0.64391885572885044 0 0.44999999999882923 0 0 0.47040171442036788 0.044141676406503738 0 0.4320097814748517 0.037406712692169303 0 0.45000000000187229 1 0 0.4308986359464303 0.96395712492906194 0 0.47135117303824892 0.95556877749289892 0 0.74999999999934175 0 0 0.7527966693318906 0.053051678021508272 0 0.72683645290270404 0.027797073151180601 0 0.74999999999999989 0.69999999999999996 0 0.75841349681148107 0.75422312624214749 0 0.72501250972655151 0.74067302935308721 0 0.69999999999999984 0.69999999999999996 0 0.72501250972655151 0.74067302935308721 0 0.6916490518212759 0.75387992374886192 0 0.74999999999934175 0 0 0.79999999999947335 0 0 0.78393852574753176 0.032039079577822822 0 0.74999999999999989 0.69999999999999996 0 0.79999999999999982 0.69999999999999996 0 0.78578450296893509 0.73292684821144505 0 0.6405463747586706 0.63290524857395714 0 0.5991018319127801 0.62925360607495295 0 0.63065402604362242 0.59661356661633302 0 0.65481233915350323 0.35652751921065562 0 0.68887083591306764 0.33632058575757479 0 0.68128176404677243 0.38629093627004979 0 0.89999999999999991 0.29999999999999999 0 0.94999999999999996 0.29999999999999999 0 0.92012390126144183 0.33123581297173937 0 0.89999999999999991 0.69999999999999996 0 0.92057473616084773 0.66770436535372446 0 0.94999999999999996 0.69999999999999996 0 0.4367309254023824 0.92065556789053882 0 0.39767323751400468 0.89584229130535065 0 0.44003836461056539 0.88093474584252718 0 0.2185883431182947 0.18019736283949719 0 0.18124454140915969 0.18790916706335251 0 0.18652628422869419 0.14162325200928061 0 0.20050006573841939 0.53248514016039872 0 0.19604738184454831 0.47787523520405789 0 0.23975172658309729 0.49475499200540818 0 0.65507451745379841 0.92229208810758578 0 0.61885627562261258 0.90282959257498208 0 0.66412543161245952 0.88015090885499059 0 0.65394964615507722 0.22666784374016369 0 0.67933712972090698 0.25920070958121938 0 0.62657463266645097 0.26524202571255862 0 0.077693244765132896 0.56932317963405099 0 0.034381862692950467 0.57372682250960894 0 0.044576108720083309 0.53509043209532614 0 0.39801143831225599 0.16651381068160659 0 0.38831533174504851 0.2189834941785925 0 0.3572130504031617 0.1874703368446563 0 0.6499999999999998 0.69999999999999996 0 0.69999999999999984 0.69999999999999996 0 0.66427993341343905 0.73232764502436276 0 0.1215415378367805 0.72939333680004137 0 0.15332765547575641 0.71200081858233666 0 0.14335651144331049 0.75565258250209677 0 0.6405463747586706 0.63290524857395714 0 0.63065402604362242 0.59661356661633302 0 0.67529834988829951 0.61613270668143583 0 0.67323294229744413 0.57556450033612505 0 0.67529834988829951 0.61613270668143583 0 0.63065402604362242 0.59661356661633302 0 0.91750694127107502 0.36982372220068471 0 0.87430060258887643 0.34056085888204451 0 0.92012390126144183 0.33123581297173937 0 0.89999999999999991 0.29999999999999999 0 0.92012390126144183 0.33123581297173937 0 0.87430060258887643 0.34056085888204451 0 0.89999999999999991 0.69999999999999996 0 0.87712158428786946 0.65709029563313581 0 0.92057473616084773 0.66770436535372446 0 0.91750694127105259 0.63017627779935648 0 0.92057473616084773 0.66770436535372446 0 0.87712158428786946 0.65709029563313581 0 0.33122374654748771 0.57588941099433744 0 0.29110487519241501 0.56588143995431495 0 0.33190227185843768 0.52715113583864037 0 0.57484956128872922 0.66573805030881994 0 0.5498280205245758 0.6290146943450976 0 0.5991018319127801 0.62925360607495295 0 0.57412547362576272 0.58273804879550706 0 0.5991018319127801 0.62925360607495295 0 0.5498280205245758 0.6290146943450976 0 0.65408113592120842 0.073941773121567966 0 0.66369801598854572 0.036327466368102787 0 0.7010294155333181 0.056779085686491267 0 0.27474541102162192 0.11822029332053539 0 0.32215584939770009 0.1218492143506909 0 0.29336099386129338 0.15892013001050981 0 0.33084213324567391 0.16272720141332131 0 0.29336099386129338 0.15892013001050981 0 0.32215584939770009 0.1218492143506909 0 0.5 0.29999999999999999 0 0.54999999999999993 0.29999999999999999 0 0.52752007115234678 0.33170632466418198 0 0.83573492347052902 0.36590755630746369 0 0.87430060258887643 0.34056085888204451 0 0.86844634540301924 0.38530937474099819 0 0.83758014339878906 0.63222013025741819 0 0.87159648282691515 0.61285406320581504 0 0.87712158428786946 0.65709029563313581 0 0.22278230690790279 0.44824268025881547 0 0.23975172658309729 0.49475499200540818 0 0.19604738184454831 0.47787523520405789 0 1 0.49999999999950101 0 0.95631871884947484 0.51827533208233789 0 0.96228564064454991 0.48206450662049471 0 0.1650278706801647 0.38791388161335733 0 0.13773355295499351 0.42497777642586831 0 0.1117088112799664 0.38831403004970022 0 0.61209567303293111 0.44669033081290321 0 0.57975577671020095 0.46172033326338591 0 0.57744073070774993 0.41535148636609359 0 0.077693244765132896 0.56932317963405099 0 0.1154888278694548 0.56733818459978413 0 0.1024350934457823 0.60772393977513839 0 0.68697391633157634 0.84450604838764298 0 0.65005442820240822 0.82644988530054031 0 0.68024162096458085 0.79868546898116533 0 0.76901770135486491 0.84293557325473656 0 0.77094201086366854 0.79647480515688507 0 0.80041942726660109 0.81543261647703358 0 0.77144070960558853 0.14311854477243749 0 0.76878382444651716 0.097147941686331368 0 0.80076557130237269 0.1154587552654202 0 0.5 0.69999999999999996 0 0.52584555706968406 0.66664215091846768 0 0.54999999999999993 0.69999999999999996 0 0.077693244765132896 0.56932317963405099 0 0.044576108720083309 0.53509043209532614 0 0.085622222639554768 0.53333248912060549 0 0.69999999999921003 0 0 0.72683645290270404 0.027797073151180601 0 0.7010294155333181 0.056779085686491267 0 1 0 0 0.97166519676946894 0.033371144900598393 0 0.94999999999986839 0 0 1 0.69999999999999996 0 0.97166519676947294 0.73337114490064459 0 0.94999999999999996 0.69999999999999996 0 1 0.69999999999999996 0 1 0.74999999999993494 0 0.97166519676947294 0.73337114490064459 0 1 0.29999999999999999 0 0.97166519676951801 0.26662885509932011 0 1 0.24999999999987299 0 1 1 0 0.94999999999979179 1 0 0.97166519676946206 0.96662885509935492 0 1 0 0 1 0.049999999999896842 0 0.97166519676946894 0.033371144900598393 0 1 0.29999999999999999 0 0.94999999999999996 0.29999999999999999 0 0.97166519676951801 0.26662885509932011 0 1 1 0 0.97166519676946206 0.96662885509935492 0 1 0.94999999999997109 0 0 0.55000000000173355 0 0.044576108720083309 0.53509043209532614 0 0.034381862692950467 0.57372682250960894 0 0.6879972333610942 0.43038561374960838 0 0.69385896817107129 0.48377516041410151 0 0.65178832218679827 0.45929119821019959 0 0.33084213324567391 0.16272720141332131 0 0.36246644853392812 0.1399454205365751 0 0.3572130504031617 0.1874703368446563 0 0.65408113592120842 0.073941773121567966 0 0.68330259535470161 0.10038702501083881 0 0.65290632656860115 0.11434202593454081 0 0.16500388252850301 0.66612077714085194 0 0.19068556247388771 0.71028988922845504 0 0.15332765547575641 0.71200081858233666 0 0.82709327591091286 0.84937141670920724 0 0.85600844944837662 0.88483418979512773 0 0.81159157511211755 0.88795995483179491 0 0.82709327591102189 0.14937141670914489 0 0.85600844944842547 0.1848341897950983 0 0.81283102246527783 0.1881007222486438 0 0.79999999999999982 0.29999999999999999 0 0.84999999999999987 0.29999999999999999 0 0.82500000000000062 0.33010209762754811 0 0.79999999999999982 0.69999999999999996 0 0.82457059160610424 0.66831947184359608 0 0.84999999999999987 0.69999999999999996 0 0.59999999999999976 0.69999999999999996 0 0.62460753523532009 0.66851202781000296 0 0.6499999999999998 0.69999999999999996 0 0.39801143831225599 0.16651381068160659 0 0.3572130504031617 0.1874703368446563 0 0.36246644853392812 0.1399454205365751 0 0.69999999999999984 0.29999999999999999 0 0.74999999999999989 0.29999999999999999 0 0.73090396928863699 0.33699297293167962 0 0.69999999999999984 0.69999999999999996 0 0.72500000000000064 0.67022701834392062 0 0.74999999999999989 0.69999999999999996 0 0.6236733212988993 0.14864538214901801 0 0.64011864159029941 0.18789607982138171 0 0.59443395090188023 0.18455690917515069 0 0.20050006573841939 0.53248514016039872 0 0.16618607197337229 0.50652878253548905 0 0.19604738184454831 0.47787523520405789 0 0.79680861578956375 0.22656778056752541 0 0.76587607630038135 0.18880039518954719 0 0.81283102246527783 0.1881007222486438 0 0.79680861578988083 0.92656778056766709 0 0.76891166905518427 0.88835469571185499 0 0.81159157511211755 0.88795995483179491 0 0.71406021706547751 0.63292083137662503 0 0.675261390228442 0.65996937624687813 0 0.67529834988829951 0.61613270668143583 0 0.6405463747586706 0.63290524857395714 0 0.67529834988829951 0.61613270668143583 0 0.675261390228442 0.65996937624687813 0 0.19670163708476801 0.31472518408333222 0 0.168349569971391 0.28054490850913671 0 0.21049769590865089 0.26857363548218488 0 0.47357141910802508 0.1873585799078378 0 0.46429753744194407 0.22870891180733599 0 0.42905200079338551 0.19982395548231649 0 0.59814117807200873 0.23398510860739519 0 0.5794309697024993 0.27124795968204829 0 0.54248833945060504 0.2520322959927106 0 0.6541250972820879 0.49999999999999989 0 0.65178832218679827 0.45929119821019959 0 0.69385896817107129 0.48377516041410151 0 0.54999999999999993 0.29999999999999999 0 0.5794309697024993 0.27124795968204829 0 0.59999999999999976 0.29999999999999999 0 0.7750489929959945 0.66593931409600093 0 0.74994237037456724 0.62775548192980357 0 0.79884539758237771 0.62875045078114233 0 0.77293540622714185 0.59448302402785813 0 0.79884539758237771 0.62875045078114233 0 0.74994237037456724 0.62775548192980357 0 0.14332333627550789 0.14578431753966009 0 0.16141998738593399 0.10404039647458049 0 0.18652628422869419 0.14162325200928061 0 0.38083244760691543 0.38531983672244652 0 0.42161023666869668 0.39493916313643851 0 0.38707855792647411 0.42299362914874578 0 0.43249999999999988 0.43937499999999979 0 0.38707855792647411 0.42299362914874578 0 0.42161023666869668 0.39493916313643851 0 0.43846182030517877 0.64845797726506715 0 0.47095389620662098 0.61892551373708504 0 0.47913475093885149 0.66010775372412711 0 0.50715858906372158 0.63295939104129484 0 0.47913475093885149 0.66010775372412711 0 0.47095389620662098 0.61892551373708504 0 0.69999999999999984 0.69999999999999996 0 0.74999999999999989 0.69999999999999996 0 0.72501250972655151 0.74067302935308721 0 0.4089290844030305 0.58728915500154233 0 0.35765792684946668 0.6000687869219653 0 0.37272913873093971 0.56192925302619479 0 0.69999999999921003 0 0 0.74999999999934175 0 0 0.72683645290270404 0.027797073151180601 0 0.17933913398461551 0.2350063570234002 0 0.21049769590865089 0.26857363548218488 0 0.168349569971391 0.28054490850913671 0 0.14474682429600511 0.85524784522713515 0 0.10562472963403439 0.87143394428979881 0 0.1074251789111534 0.83564394292147814 0 0.14332333627550789 0.14578431753966009 0 0.106902708054812 0.16453234188234539 0 0.1053400320299198 0.12877248826361379 0 0.2236846579037573 0.67380363126050236 0 0.19914261668318661 0.62286739485272158 0 0.2459498854893499 0.63248470766216769 0 0.049999999999899652 0 0 0.053064897599215843 0.048131547304697528 0 0.02576622439977887 0.024532886826226379 0 0 0.050000000000207989 0 0.02576622439977887 0.024532886826226379 0 0.053064897599215843 0.048131547304697528 0 0.050000000000207989 1 0 0.025766224399875661 0.97546711317377799 0 0.053064897599294662 0.95186845269532028 0 0 0.94999999999979179 0 0.053064897599294662 0.95186845269532028 0 0.025766224399875661 0.97546711317377799 0 0.47357141910802508 0.1873585799078378 0 0.48466639505193998 0.1421439844745814 0 0.51729576145820033 0.1683240575987815 0 0.077693244765132896 0.56932317963405099 0 0.085622222639554768 0.53333248912060549 0 0.1154888278694548 0.56733818459978413 0 0.64753070846764316 0.77332939069435502 0 0.63221990677827677 0.73442891067859706 0 0.66427993341343905 0.73232764502436276 0 0.4656888918609538 0.78493261229743638 0 0.42609163930740518 0.80361684430568059 0 0.42676259796334498 0.76772545931379299 0 0.4089290844030305 0.58728915500154233 0 0.39743091024207589 0.6239520004230239 0 0.35765792684946668 0.6000687869219653 0 0.55306006949600994 0.20198184231352201 0 0.50760557329222289 0.20700468884612061 0 0.51729576145820033 0.1683240575987815 0 1 0.8999999999998336 0 1 0.94999999999997109 0 0.97435614836744289 0.92499999999990257 0 1 0.19999999999974799 0 1 0.24999999999987299 0 0.97435614836740092 0.22499999999981049 0 1 0.74999999999993494 0 1 0.7999999999998193 0 0.97435614836745565 0.77499999999987745 0 1 0.049999999999896842 0 1 0.099999999999753911 0 0.97435614836748241 0.074999999999825387 0 0.86411095495256451 0.42388805655111889 0 0.86844634540301924 0.38530937474099819 0 0.90594285160987287 0.4141265964174129 0 0.86956835336234861 0.571283299838105 0 0.91143117093204207 0.58709913730335972 0 0.87159648282691515 0.61285406320581504 0 0 0 0 0.02576622439977887 0.024532886826226379 0 0 0.050000000000207989 0 0 1 0 0 0.94999999999979179 0 0.025766224399875661 0.97546711317377799 0 0 1 0 0.025766224399875661 0.97546711317377799 0 0.050000000000207989 1 0 0 0 0 0.049999999999899652 0 0 0.02576622439977887 0.024532886826226379 0 0.65394964615507722 0.22666784374016369 0 0.64011864159029941 0.18789607982138171 0 0.6865991819015953 0.189116534044597 0 0.25195515620380449 0.25883339815888678 0 0.28040350263641872 0.23054717217092141 0 0.29132859388405002 0.27203693976649962 0 0.61209567303293111 0.44669033081290321 0 0.65178832218679827 0.45929119821019959 0 0.61547661924074692 0.48539576058873962 0 0.6541250972820879 0.49999999999999989 0 0.61547661924074692 0.48539576058873962 0 0.65178832218679827 0.45929119821019959 0 0.19670163708476801 0.31472518408333222 0 0.24432083401701241 0.3006253385567515 0 0.22615676742807109 0.33458786033114157 0 0.15801167086041079 0.46008690540259539 0 0.13773355295499351 0.42497777642586831 0 0.191953871957803 0.42546416763755879 0 0.1650278706801647 0.38791388161335733 0 0.191953871957803 0.42546416763755879 0 0.13773355295499351 0.42497777642586831 0 0.50715858906372158 0.63295939104129484 0 0.52584555706968406 0.66664215091846768 0 0.47913475093885149 0.66010775372412711 0 0.5 0.69999999999999996 0 0.47913475093885149 0.66010775372412711 0 0.52584555706968406 0.66664215091846768 0 0.51076801031701946 0.1202837388510348 0 0.51729576145820033 0.1683240575987815 0 0.48466639505193998 0.1421439844745814 0 0.71406021706547751 0.63292083137662503 0 0.74994237037456724 0.62775548192980357 0 0.72500000000000064 0.67022701834392062 0 0.71508799138962864 0.36622814920737751 0 0.73090396928863699 0.33699297293167962 0 0.74764719760526988 0.3719647154012321 0 0.22278230690790279 0.44824268025881547 0 0.25982634974572738 0.46097799597715272 0 0.23975172658309729 0.49475499200540818 0 0.80185942888539485 0.77452061303608133 0 0.78578450296893509 0.73292684821144505 0 0.81864958914779962 0.73589050177899629 0 0.80185942888501827 0.074520613036224564 0 0.78393852574753176 0.032039079577822822 0 0.81864958914740749 0.035890501779055867 0 0.5 0.29999999999999999 0 0.46226845272279993 0.31901800744800313 0 0.4604742573284204 0.27846934318264788 0 0.6405463747586706 0.63290524857395714 0 0.62460753523532009 0.66851202781000296 0 0.5991018319127801 0.62925360607495295 0 0.79680861578988083 0.92656778056766709 0 0.770759834363826 0.95919399014344442 0 0.75729602384198635 0.92353652857884294 0 0.79680861578956375 0.22656778056752541 0 0.77075983436335049 0.25919399014334171 0 0.75668890529066124 0.2244279804069782 0 0.65394964615507722 0.22666784374016369 0 0.69397719155551807 0.2245125647000914 0 0.67933712972090698 0.25920070958121938 0 0.81973119833356312 0.43505687159469048 0 0.84925632466077294 0.45359738909549091 0 0.81400510706333218 0.47357325943904899 0 0.83758014339878906 0.63222013025741819 0 0.82457059160610424 0.66831947184359608 0 0.79884539758237771 0.62875045078114233 0 0.25676291524611189 0.7436741304886243 0 0.2248999640082178 0.72584299459689172 0 0.26439878998046262 0.7048065392091396 0 0.91696753777131557 0.497780560203536 0 0.90900154012161016 0.53607784105648792 0 0.86907294890112186 0.52008116128001669 0 0.17933913398461551 0.2350063570234002 0 0.168349569971391 0.28054490850913671 0 0.14377654328998779 0.2442024734791064 0 0.1247745017231483 0.27198077544791172 0 0.14377654328998779 0.2442024734791064 0 0.168349569971391 0.28054490850913671 0 0.34258405725730701 0.4444034294386992 0 0.35221190152536241 0.40457127605439203 0 0.38707855792647411 0.42299362914874578 0 0.47357141910802508 0.1873585799078378 0 0.51729576145820033 0.1683240575987815 0 0.50760557329222289 0.20700468884612061 0 0.19670163708476801 0.31472518408333222 0 0.22615676742807109 0.33458786033114157 0 0.18434624290945251 0.35208838264196463 0 0.22033343844674469 0.36963382230740238 0 0.18434624290945251 0.35208838264196463 0 0.22615676742807109 0.33458786033114157 0 0.24432083401701241 0.3006253385567515 0 0.25966125648670141 0.34351016742083729 0 0.22615676742807109 0.33458786033114157 0 0.93814194660195893 0.44426664081746747 0 0.90594285160987287 0.4141265964174129 0 0.95871855522754235 0.40006508612975411 0 0.91750694127107502 0.36982372220068471 0 0.95871855522754235 0.40006508612975411 0 0.90594285160987287 0.4141265964174129 0 0.91750694127105259 0.63017627779935648 0 0.91143117093204207 0.58709913730335972 0 0.95867599106212187 0.60011091146651041 0 0.93732437411268477 0.55911392101136159 0 0.95867599106212187 0.60011091146651041 0 0.91143117093204207 0.58709913730335972 0 0.50715858906372158 0.63295939104129484 0 0.5498280205245758 0.6290146943450976 0 0.52584555706968406 0.66664215091846768 0 0.94399509803918602 0.75600490196082126 0 0.97435614836745565 0.77499999999987745 0 0.95386563387742829 0.80414874155775029 0 0.94399509803922566 0.056004901960802607 0 0.97435614836748241 0.074999999999825387 0 0.95386563387744361 0.1041487415577465 0 0.94399509803921056 0.24399509803922639 0 0.95391631417672862 0.19584263333809451 0 0.97435614836740092 0.22499999999981049 0 0.94399509803919068 0.9439950980391687 0 0.95391631417670719 0.89584263333814784 0 0.97435614836744289 0.92499999999990257 0 0.79680861578988083 0.92656778056766709 0 0.75729602384198635 0.92353652857884294 0 0.76891166905518427 0.88835469571185499 0 0.79680861578956375 0.22656778056752541 0 0.75668890529066124 0.2244279804069782 0 0.76587607630038135 0.18880039518954719 0 0.65394964615507722 0.22666784374016369 0 0.6865991819015953 0.189116534044597 0 0.69397719155551807 0.2245125647000914 0 0.38083244760691543 0.38531983672244652 0 0.38707855792647411 0.42299362914874578 0 0.35221190152536241 0.40457127605439203 0 1 0.7999999999998193 0 0.95386563387742829 0.80414874155775029 0 0.97435614836745565 0.77499999999987745 0 1 0.099999999999753911 0 0.95386563387744361 0.1041487415577465 0 0.97435614836748241 0.074999999999825387 0 1 0.8999999999998336 0 0.97435614836744289 0.92499999999990257 0 0.95391631417670719 0.89584263333814784 0 1 0.19999999999974799 0 0.97435614836740092 0.22499999999981049 0 0.95391631417672862 0.19584263333809451 0 0.84723782639812573 0.48638347960178252 0 0.81400510706333218 0.47357325943904899 0 0.84925632466077294 0.45359738909549091 0 0.54999999999999993 0.29999999999999999 0 0.54248833945060504 0.2520322959927106 0 0.5794309697024993 0.27124795968204829 0 0.94999999999999996 0.29999999999999999 0 0.95780851984364423 0.34215720972155339 0 0.92012390126144183 0.33123581297173937 0 0.94999999999999996 0.69999999999999996 0 0.92057473616084773 0.66770436535372446 0 0.9578014258160763 0.65787212321113708 0 0.15801167086041079 0.46008690540259539 0 0.113541300460994 0.46208784312094731 0 0.13773355295499351 0.42497777642586831 0 0.7250000000005199 0.94981617647078953 0 0.68015064798562208 0.95924320340003011 0 0.68987011941058407 0.92105047536677087 0 0.65507451745379841 0.92229208810758578 0 0.68987011941058407 0.92105047536677087 0 0.68015064798562208 0.95924320340003011 0 0.77846603114747959 0.49850927265137401 0 0.77972660463949339 0.45529290596363098 0 0.81400510706333218 0.47357325943904899 0 0.27866744612395528 0.38416094670951489 0 0.25966125648670141 0.34351016742083729 0 0.29644548887253103 0.34914008784168082 0 0.61209567303293111 0.44669033081290321 0 0.61547661924074692 0.48539576058873962 0 0.57975577671020095 0.46172033326338591 0 0.57611405284611883 0.50165903596042916 0 0.57975577671020095 0.46172033326338591 0 0.61547661924074692 0.48539576058873962 0 0.7250000000005199 0.89375000000045834 0 0.76891166905518427 0.88835469571185499 0 0.75729602384198635 0.92353652857884294 0 0.72500000000001008 0.19776155966387679 0 0.76587607630038135 0.18880039518954719 0 0.75668890529066124 0.2244279804069782 0 0.72500000000001008 0.19776155966387679 0 0.69397719155551807 0.2245125647000914 0 0.6865991819015953 0.189116534044597 0 0.083411279318303222 0.089699755330707398 0 0.12372429750337779 0.095814237875728972 0 0.1053400320299198 0.12877248826361379 0 0.083411279318375747 0.91030024466934134 0 0.10562472963403439 0.87143394428979881 0 0.1241151115713819 0.9045666525468371 0 0.14617343800780541 0.93808063414349496 0 0.1241151115713819 0.9045666525468371 0 0.16206583317966519 0.89685560785156404 0 0.14618258501891079 0.062070108745602003 0 0.16141998738593399 0.10404039647458049 0 0.12372429750337779 0.095814237875728972 0 0.33277555741076909 0.36432196682010132 0 0.35221190152536241 0.40457127605439203 0 0.31778888742534622 0.40581751814196781 0 0.7250000000005199 0.94981617647078953 0 0.75729602384198635 0.92353652857884294 0 0.770759834363826 0.95919399014344442 0 0.72500000000000064 0.2498161764706 0 0.75668890529066124 0.2244279804069782 0 0.77075983436335049 0.25919399014334171 0 0.72500000000000064 0.2498161764706 0 0.67933712972090698 0.25920070958121938 0 0.69397719155551807 0.2245125647000914 0 0.6236733212988993 0.14864538214901801 0 0.61956000905586006 0.1043312481793135 0 0.65290632656860115 0.11434202593454081 0 0.81973119833356312 0.43505687159469048 0 0.81400510706333218 0.47357325943904899 0 0.77972660463949339 0.45529290596363098 0 0.25676291524611189 0.7436741304886243 0 0.29904318922293632 0.74132814928635593 0 0.2792923945214143 0.77665808831789485 0 0.36575549820117997 0.31677992835137742 0 0.32752639306529541 0.32610012995269699 0 0.33402499257867951 0.28911035184473982 0 0.14332333627550789 0.14578431753966009 0 0.18652628422869419 0.14162325200928061 0 0.18124454140915969 0.18790916706335251 0 0.57724883562309992 0.92155686857100794 0 0.5832743223239254 0.88483152652961872 0 0.61885627562261258 0.90282959257498208 0 0.57667858002728545 0.078486105337742612 0 0.61956000905586006 0.1043312481793135 0 0.58516465772821369 0.11653801664834119 0 0.80185942888539485 0.77452061303608133 0 0.80041942726660109 0.81543261647703358 0 0.77094201086366854 0.79647480515688507 0 0.80185942888501827 0.074520613036224564 0 0.80076557130237269 0.1154587552654202 0 0.76878382444651716 0.097147941686331368 0 0.64753070846764316 0.77332939069435502 0 0.68024162096458085 0.79868546898116533 0 0.65005442820240822 0.82644988530054031 0 0.26429849586623999 0.19346700179430079 0 0.25557216766470708 0.15874861286892261 0 0.29336099386129338 0.15892013001050981 0 0.29348325746214782 0.31350119524708198 0 0.29644548887253103 0.34914008784168082 0 0.25966125648670141 0.34351016742083729 0 0.68391457121233579 0.14440470121196541 0 0.65290632656860115 0.11434202593454081 0 0.68330259535470161 0.10038702501083881 0 0.91750694127107502 0.36982372220068471 0 0.92012390126144183 0.33123581297173937 0 0.95780851984364423 0.34215720972155339 0 0.91750694127105259 0.63017627779935648 0 0.9578014258160763 0.65787212321113708 0 0.92057473616084773 0.66770436535372446 0 0.22033343844674469 0.36963382230740238 0 0.22615676742807109 0.33458786033114157 0 0.25966125648670141 0.34351016742083729 0 1 0.94999999999997109 0 0.97166519676946206 0.96662885509935492 0 0.97435614836744289 0.92499999999990257 0 0.94399509803919068 0.9439950980391687 0 0.97435614836744289 0.92499999999990257 0 0.97166519676946206 0.96662885509935492 0 0.94399509803921056 0.24399509803922639 0 0.97435614836740092 0.22499999999981049 0 0.97166519676951801 0.26662885509932011 0 1 0.24999999999987299 0 0.97166519676951801 0.26662885509932011 0 0.97435614836740092 0.22499999999981049 0 1 0.74999999999993494 0 0.97435614836745565 0.77499999999987745 0 0.97166519676947294 0.73337114490064459 0 1 0.049999999999896842 0 0.97435614836748241 0.074999999999825387 0 0.97166519676946894 0.033371144900598393 0 0.94399509803918602 0.75600490196082126 0 0.97166519676947294 0.73337114490064459 0 0.97435614836745565 0.77499999999987745 0 0.94399509803922566 0.056004901960802607 0 0.97166519676946894 0.033371144900598393 0 0.97435614836748241 0.074999999999825387 0 0.77846603114747959 0.49850927265137401 0 0.81400510706333218 0.47357325943904899 0 0.81441713509985358 0.51161854125224959 0 0.77354604466818633 0.40378688774472771 0 0.72622533758026719 0.40265885511101601 0 0.74764719760526988 0.3719647154012321 0 0.71508799138962864 0.36622814920737751 0 0.74764719760526988 0.3719647154012321 0 0.72622533758026719 0.40265885511101601 0 0.84723782639812573 0.48638347960178252 0 0.84925632466077294 0.45359738909549091 0 0.88594198078881503 0.46167788676578442 0 0.86411095495256451 0.42388805655111889 0 0.88594198078881503 0.46167788676578442 0 0.84925632466077294 0.45359738909549091 0 0.43846182030517877 0.64845797726506715 0 0.43545892161006339 0.61093128915313821 0 0.47095389620662098 0.61892551373708504 0 0.33123028043633618 0.77629643437932982 0 0.35642984951668422 0.80994399665655703 0 0.30857225866488791 0.81101973481716805 0 0.33403534827021109 0.84402799729020661 0 0.30857225866488791 0.81101973481716805 0 0.35642984951668422 0.80994399665655703 0 0.26429849586623999 0.19346700179430079 0 0.31255190597181792 0.19850845631528771 0 0.28040350263641872 0.23054717217092141 0 0.57724883562309992 0.92155686857100794 0 0.54783390826260769 0.89287767010860219 0 0.5832743223239254 0.88483152652961872 0 0.55899371797446828 0.85003102233514438 0 0.5832743223239254 0.88483152652961872 0 0.54783390826260769 0.89287767010860219 0 0.4089290844030305 0.58728915500154233 0 0.43545892161006339 0.61093128915313821 0 0.39743091024207589 0.6239520004230239 0 0.77293540622714185 0.59448302402785813 0 0.81723410853263523 0.59419663659258926 0 0.79884539758237771 0.62875045078114233 0 0.83758014339878906 0.63222013025741819 0 0.79884539758237771 0.62875045078114233 0 0.81723410853263523 0.59419663659258926 0 0.35864735590330371 0.63903383440414463 0 0.39743091024207589 0.6239520004230239 0 0.3977710372045391 0.65868194622830212 0 0.56202748619534593 0.15054058349222879 0 0.54979595918804436 0.1060565713905809 0 0.58516465772821369 0.11653801664834119 0 0.57667858002728545 0.078486105337742612 0 0.58516465772821369 0.11653801664834119 0 0.54979595918804436 0.1060565713905809 0 0.33122374654748771 0.57588941099433744 0 0.37272913873093971 0.56192925302619479 0 0.35765792684946668 0.6000687869219653 0 0.35864735590330371 0.63903383440414463 0 0.35765792684946668 0.6000687869219653 0 0.39743091024207589 0.6239520004230239 0 0.71508799138962864 0.36622814920737751 0 0.68887083591306764 0.33632058575757479 0 0.73090396928863699 0.33699297293167962 0 0.29348325746214782 0.31350119524708198 0 0.32752639306529541 0.32610012995269699 0 0.29644548887253103 0.34914008784168082 0 0.33277555741076909 0.36432196682010132 0 0.29644548887253103 0.34914008784168082 0 0.32752639306529541 0.32610012995269699 0 0.34258405725730701 0.4444034294386992 0 0.31778888742534622 0.40581751814196781 0 0.35221190152536241 0.40457127605439203 0 0.79999999999999982 0.69999999999999996 0 0.81864958914779962 0.73589050177899629 0 0.78578450296893509 0.73292684821144505 0 0.79999999999947335 0 0 0.81864958914740749 0.035890501779055867 0 0.78393852574753176 0.032039079577822822 0 0.27474541102162192 0.11822029332053539 0 0.29336099386129338 0.15892013001050981 0 0.25557216766470708 0.15874861286892261 0 0 0.45000000000187229 0 0.035463093262830522 0.42673416072819947 0 0.033550201249889847 0.46247875832467239 0 0.6499999999999998 0.69999999999999996 0 0.66427993341343905 0.73232764502436276 0 0.63221990677827677 0.73442891067859706 0 0.84723782639812573 0.48638347960178252 0 0.81441713509985358 0.51161854125224959 0 0.81400510706333218 0.47357325943904899 0 0.26104540868854792 0.81401944968719064 0 0.30857225866488791 0.81101973481716805 0 0.29209212897034281 0.84715728365233667 0 0.33403534827021109 0.84402799729020661 0 0.29209212897034281 0.84715728365233667 0 0.30857225866488791 0.81101973481716805 0 0.69999999999999984 0.29999999999999999 0 0.73090396928863699 0.33699297293167962 0 0.68887083591306764 0.33632058575757479 0 
</DataArray>
</Points>
<Cells>
<DataArray type="UInt32" Name="connectivity" format="ascii">
0 1 2 3 4 5 6 7 8 9 10 11 12 13 14 15 16 17 18 19 20 21 22 23 24 25 26 27 28 29 30 31 32 33 34 35 36 37 38 39 40 41 42 43 44 45 46 47 48 49 50 51 52 53 54 55 56 57 58 59 60 61 62 63 64 65 66 67 68 69 70 71 72 73 74 75 76 77 78 79 80 81 82 83 84 85 86 87 88 89 90 91 92 93 94 95 96 97 98 99 100 101 102 103 104 105 106 107 108 109 110 111 112 113 114 115 116 117 118 119 120 121 122 123 124 125 126 127 128 129 130 131 132 133 134 135 136 137 138 139 140 141 142 143 144 145 146 147 148 149 150 151 152 153 154 155 156 157 158 159 160 161 162 163 164 165 166 167 168 169 170 171 172 173 174 175 176 177 178 179 180 181 182 183 184 185 186 187 188 189 190 191 192 193 194 195 196 197 198 199 200 201 202 203 204 205 206 207 208 209 210 211 212 213 214 215 216 217 218 219 220 221 222 223 224 225 226 227 228 229 230 231 232 233 234 235 236 237 238 239 240 241 242 243 244 245 246 247 248 249 250 251 252 253 254 255 256 257 258 259 260 261 262 263 264 265 266 267 268 269 270 271 272 273 274 275 276 277 278 279 280 281 282 283 284 285 286 287 288 289 290 291 292 293 294 295 296 297 298 299 300 301 302 303 304 305 306 307 308 309 310 311 312 313 314 315 316 317 318 319 320 321 322 323 324 325 326 327 328 329 330 331 332 333 334 335 336 337 338 339 340 341 342 343 344 345 346 347 348 349 350 351 352 353 354 355 356 357 358 359 360 361 362 363 364 365 366 367 368 369 370 371 372 373 374 375 376 377 378 379 380 381 382 383 384 385 386 387 388 389 390 391 392 393 394 395 396 397 398 399 400 401 402 403 404 405 406 407 408 409 410 411 412 413 414 415 416 417 418 419 420 421 422 423 424 425 426 427 428 429 430 431 432 433 434 435 436 437 438 439 440 441 442 443 444 445 446 447 448 449 450 451 452 453 454 455 456 457 458 459 460 461 462 463 464 465 466 467 468 469 470 471 472 473 474 475 476 477 478 479 480 481 482 483 484 485 486 487 488 489 490 491 492 493 494 495 496 497 498 499 500 501 502 503 504 505 506 507 508 509 510 511 512 513 514 515 516 517 518 519 520 521 522 523 524 525 526 527 528 529 530 531 532 533 534 535 536 537 538 539 540 541 542 543 544 545 546 547 548 549 550 551 552 553 554 555 556 557 558 559 560 561 562 563 564 565 566 567 568 569 570 571 572 573 574 575 576 577 578 579 580 581 582 583 584 585 586 587 588 589 590 591 592 593 594 595 596 597 598 599 600 601 602 603 604 605 606 607 608 609 610 611 612 613 614 615 616 617 618 619 620 621 622 623 624 625 626 627 628 629 630 631 632 633 634 635 636 637 638 639 640 641 642 643 644 645 646 647 648 649 650 651 652 653 654 655 656 657 658 659 660 661 662 663 664 665 666 667 668 669 670 671 672 673 674 675 676 677 678 679 680 681 682 683 684 685 686 687 688 689 690 691 692 693 694 695 696 697 698 699 700 701 702 703 704 705 706 707 708 709 710 711 712 713 714 715 716 717 718 719 720 721 722 723 724 725 726 727 728 729 730 731 732 733 734 735 736 737 738 739 740 741 742 743 744 745 746 747 748 749 750 751 752 753 754 755 756 757 758 759 760 761 762 763 764 765 766 767 768 769 770 771 772 773 774 775 776 777 778 779 780 781 782 783 784 785 786 787 788 789 790 791 792 793 794 795 796 797 798 799 800 801 802 803 804 805 806 807 808 809 810 811 812 813 814 815 816 817 818 819 820 821 822 823 824 825 826 827 828 829 830 831 832 833 834 835 836 837 838 839 840 841 842 843 844 845 846 847 848 849 850 851 852 853 854 855 856 857 858 859 860 861 862 863 864 865 866 867 868 869 870 871 872 873 874 875 876 877 878 879 880 881 882 883 884 885 886 887 888 889 890 891 892 893 894 895 896 897 898 899 900 901 902 903 904 905 906 907 908 909 910 911 912 913 914 915 916 917 918 919 920 921 922 923 924 925 926 927 928 929 930 931 932 933 934 935 936 937 938 939 940 941 942 943 944 945 946 947 948 949 950 951 952 953 954 955 956 957 958 959 960 961 962 963 964 965 966 967 968 969 970 971 972 973 974 975 976 977 978 979 980 981 982 983 984 985 986 987 988 989 990 991 992 993 994 995 996 997 998 999 1000 1001 1002 1003 1004 1005 1006 1007 1008 1009 1010 1011 1012 1013 1014 1015 1016 1017 1018 1019 1020 1021 1022 1023 1024 1025 1026 1027 1028 1029 1030 1031 1032 1033 1034 1035 1036 1037 1038 1039 1040 1041 1042 1043 1044 1045 1046 1047 1048 1049 1050 1051 1052 1053 1054 1055 1056 1057 1058 1059 1060 1061 1062 1063 1064 1065 1066 1067 1068 1069 1070 1071 1072 1073 1074 1075 1076 1077 1078 1079 1080 1081 1082 1083 1084 1085 1086 1087 1088 1089 1090 1091 1092 1093 1094 1095 1096 1097 1098 1099 1100 1101 1102 1103 1104 1105 1106 1107 1108 1109 1110 1111 1112 1113 1114 1115 1116 1117 1118 1119 1120 1121 1122 1123 1124 1125 1126 1127 1128 1129 1130 1131 1132 1133 1134 1135 1136 1137 1138 1139 1140 1141 1142 1143 1144 1145 1146 1147 1148 1149 1150 1151 1152 1153 1154 1155 1156 1157 1158 1159 1160 1161 1162 1163 1164 1165 1166 1167 1168 1169 1170 1171 1172 1173 1174 1175 1176 1177 1178 1179 1180 1181 1182 1183 1184 1185 1186 1187 1188 1189 1190 1191 1192 1193 1194 1195 1196 1197 1198 1199 1200 1201 1202 1203 1204 1205 1206 1207 1208 1209 1210 1211 1212 1213 1214 1215 1216 1217 1218 1219 1220 1221 1222 1223 1224 1225 1226 1227 1228 1229 1230 1231 1232 1233 1234 1235 1236 1237 1238 1239 1240 1241 1242 1243 1244 1245 1246 1247 1248 1249 1250 1251 1252 1253 1254 1255 1256 1257 1258 1259 1260 1261 1262 1263 1264 1265 1266 1267 1268 1269 1270 1271 1272 1273 1274 1275 1276 1277 1278 1279 1280 1281 1282 1283 1284 1285 1286 1287 1288 1289 1290 1291 1292 1293 1294 1295 1296 1297 1298 1299 1300 1301 1302 1303 1304 1305 1306 1307 1308 1309 1310 1311 1312 1313 1314 1315 1316 1317 1318 1319 1320 1321 1322 1323 1324 1325 1326 1327 1328 1329 1330 1331 1332 1333 1334 1335 1336 1337 1338 1339 1340 1341 1342 1343 1344 1345 1346 1347 1348 1349 1350 1351 1352 1353 1354 1355 1356 1357 1358 1359 1360 1361 1362 1363 1364 1365 1366 1367 1368 1369 1370 1371 1372 1373 1374 1375 1376 1377 1378 1379 1380 1381 1382 1383 1384 1385 1386 1387 1388 1389 1390 1391 1392 1393 1394 1395 1396 1397 1398 1399 1400 1401 1402 1403 1404 1405 1406 1407 1408 1409 1410 1411 1412 1413 1414 1415 1416 1417 1418 1419 1420 1421 1422 1423 1424 1425 1426 1427 1428 1429 1430 1431 1432 1433 1434 1435 1436 1437 1438 1439 1440 1441 1442 1443 1444 1445 1446 1447 1448 1449 1450 1451 1452 1453 1454 1455 1456 1457 1458 1459 1460 1461 1462 1463 1464 1465 1466 1467 1468 1469 1470 1471 1472 1473 1474 1475 1476 1477 1478 1479 1480 1481 1482 1483 1484 1485 1486 1487 1488 1489 1490 1491 1492 1493 1494 1495 1496 1497 1498 1499 1500 1501 1502 1503 1504 1505 1506 1507 1508 1509 1510 1511 1512 1513 1514 1515 1516 1517 1518 1519 1520 1521 1522 1523 1524 1525 1526 1527 1528 1529 1530 1531 1532 1533 1534 1535 1536 1537 1538 1539 1540 1541 1542 1543 1544 1545 1546 1547 1548 1549 1550 1551 1552 1553 1554 1555 1556 1557 1558 1559 1560 1561 1562 1563 1564 1565 1566 1567 1568 1569 1570 1571 1572 1573 1574 1575 1576 1577 1578 1579 1580 1581 1582 1583 1584 1585 1586 1587 1588 1589 1590 1591 1592 1593 1594 1595 1596 1597 1598 1599 1600 1601 1602 1603 1604 1605 1606 1607 1608 1609 1610 1611 1612 1613 1614 1615 1616 1617 1618 1619 1620 1621 1622 1623 1624 1625 1626 1627 1628 1629 1630 1631 1632 1633 1634 1635 1636 1637 1638 1639 1640 1641 1642 1643 1644 1645 1646 1647 1648 1649 1650 1651 1652 1653 1654 1655 1656 1657 1658 1659 1660 1661 1662 1663 1664 1665 1666 1667 1668 1669 1670 1671 1672 1673 1674 1675 1676 1677 1678 1679 1680 1681 1682 1683 1684 1685 1686 1687 1688 1689 1690 1691 1692 1693 1694 1695 1696 1697 1698 1699 1700 1701 1702 1703 1704 1705 1706 1707 1708 1709 1710 1711 1712 1713 1714 1715 1716 1717 1718 1719 1720 1721 1722 1723 1724 1725 1726 1727 1728 1729 1730 1731 1732 1733 1734 1735 1736 1737 1738 1739 1740 1741 1742 1743 1744 1745 1746 1747 1748 1749 1750 1751 1752 1753 1754 1755 1756 1757 1758 1759 1760 1761 1762 1763 1764 1765 1766 1767 1768 1769 1770 1771 1772 1773 1774 1775 1776 1777 1778 1779 1780 1781 1782 1783 1784 1785 1786 1787 1788 1789 1790 1791 1792 1793 1794 1795 1796 1797 1798 1799 1800 1801 1802 1803 1804 1805 1806 1807 1808 1809 1810 1811 1812 1813 1814 1815 1816 1817 1818 1819 1820 1821 1822 1823 1824 1825 1826 1827 1828 1829 1830 1831 1832 1833 1834 1835 1836 1837 1838 1839 1840 1841 1842 1843 1844 1845 1846 1847 1848 1849 1850 1851 1852 1853 1854 1855 1856 1857 1858 1859 1860 1861 1862 1863 1864 1865 1866 1867 1868 1869 1870 1871 1872 1873 1874 1875 1876 1877 1878 1879 1880 1881 1882 1883 1884 1885 1886 1887 1888 1889 1890 1891 1892 1893 1894 1895 1896 1897 1898 1899 1900 1901 1902 1903 1904 1905 1906 1907 1908 1909 1910 1911 1912 1913 1914 1915 1916 1917 1918 1919 1920 1921 1922 1923 1924 1925 1926 1927 1928 1929 1930 1931 1932 1933 1934 1935 1936 1937 1938 1939 1940 1941 1942 1943 1944 1945 1946 1947 1948 1949 1950 1951 1952 1953 1954 1955 1956 1957 1958 1959 1960 1961 1962 1963 1964 1965 1966 1967 1968 1969 1970 1971 1972 1973 1974 1975 1976 1977 1978 1979 1980 1981 1982 1983 1984 1985 1986 1987 1988 1989 1990 1991 1992 1993 1994 1995 1996 1997 1998 1999 2000 2001 2002 2003 2004 2005 2006 2007 2008 2009 2010 2011 2012 2013 2014 2015 2016 2017 2018 2019 2020 2021 2022 2023 2024 2025 2026 2027 2028 2029 2030 2031 2032 2033 2034 2035 2036 2037 2038 2039 2040 2041 2042 2043 2044 2045 2046 2047 2048 2049 2050 2051 2052 2053 2054 2055 2056 2057 2058 2059 2060 2061 2062 2063 2064 2065 2066 2067 2068 2069 2070 2071 2072 2073 2074 2075 2076 2077 2078 2079 2080 2081 2082 2083 2084 2085 2086 2087 2088 2089 2090 2091 2092 2093 2094 2095 2096 2097 2098 2099 2100 2101 2102 2103 2104 2105 2106 2107 2108 2109 2110 2111 2112 2113 2114 2115 2116 2117 2118 2119 2120 2121 2122 2123 2124 2125 2126 2127 2128 2129 2130 2131 2132 2133 2134 2135 2136 2137 2138 2139 2140 2141 2142 2143 2144 2145 2146 2147 2148 2149 2150 2151 2152 2153 2154 2155 2156 2157 2158 2159 2160 2161 2162 2163 2164 2165 2166 2167 2168 2169 2170 2171 2172 2173 2174 2175 2176 2177 2178 2179 2180 2181 2182 2183 2184 2185 2186 2187 2188 2189 2190 2191 2192 2193 2194 2195 2196 2197 2198 2199 2200 2201 2202 2203 2204 2205 2206 2207 2208 2209 2210 2211 2212 2213 2214 2215 2216 2217 2218 2219 2220 2221 2222 2223 2224 2225 2226 2227 2228 2229 2230 2231 2232 2233 2234 2235 2236 2237 2238 2239 2240 2241 2242 2243 2244 2245 2246 2247 2248 2249 2250 2251 2252 2253 2254 2255 2256 2257 2258 2259 2260 2261 2262 2263 2264 2265 2266 2267 2268 2269 2270 2271 2272 2273 2274 2275 2276 2277 2278 2279 2280 2281 2282 2283 2284 2285 2286 2287 2288 2289 2290 2291 2292 2293 2294 2295 2296 2297 2298 2299 2300 2301 2302 2303 2304 2305 2306 2307 2308 2309 2310 2311 2312 2313 2314 2315 2316 2317 2318 2319 2320 2321 2322 2323 2324 2325 2326 2327 2328 2329 2330 2331 2332 2333 2334 2335 2336 2337 2338 2339 2340 2341 2342 2343 2344 2345 2346 2347 2348 2349 2350 2351 2352 2353 2354 2355 2356 2357 2358 2359 2360 2361 2362 2363 2364 2365 2366 2367 2368 2369 2370 2371 2372 2373 2374 2375 2376 2377 2378 2379 2380 2381 2382 2383 2384 2385 2386 2387 2388 2389 2390 2391 2392 2393 2394 2395 2396 2397 2398 2399 2400 2401 2402 2403 2404 2405 2406 2407 2408 2409 2410 2411 2412 2413 2414 2415 2416 2417 2418 2419 2420 2421 2422 2423 2424 2425 2426 2427 2428 2429 2430 2431 2432 2433 2434 2435 2436 2437 2438 2439 2440 2441 2442 2443 2444 2445 2446 2447 2448 2449 2450 2451 2452 2453 2454 2455 2456 2457 2458 2459 2460 2461 2462 2463 2464 2465 2466 2467 2468 2469 2470 2471 2472 2473 2474 2475 2476 2477 2478 2479 2480 2481 2482 2483 2484 2485 2486 2487 2488 2489 2490 2491 2492 2493 2494 2495 2496 2497 2498 2499 2500 2501 2502 2503 2504 2505 2506 2507 2508 2509 2510 2511 2512 2513 2514 2515 2516 2517 2518 2519 2520 2521 2522 2523 2524 2525 2526 2527 2528 2529 2530 2531 2532 2533 2534 2535 2536 2537 2538 2539 2540 2541 2542 2543 2544 2545 2546 2547 2548 2549 2550 2551 2552 2553 2554 2555 2556 2557 2558 2559 2560 2561 2562 2563 2564 2565 2566 2567 2568 2569 2570 2571 2572 2573 2574 2575 2576 2577 2578 2579 2580 2581 2582 2583 2584 2585 2586 2587 2588 2589 2590 2591 2592 2593 2594 2595 2596 2597 2598 2599 2600 2601 2602 2603 2604 2605 2606 2607 2608 2609 2610 2611 2612 2613 2614 2615 2616 2617 2618 2619 2620 2621 2622 2623 2624 2625 2626 2627 2628 2629 2630 2631 2632 2633 2634 2635 2636 2637 2638 2639 2640 2641 2642 2643 2644 2645 2646 2647 2648 2649 2650 2651 2652 2653 2654 2655 2656 2657 2658 2659 2660 2661 2662 2663 2664 2665 2666 2667 2668 2669 2670 2671 2672 2673 2674 2675 2676 2677 2678 2679 2680 2681 2682 2683 2684 2685 2686 2687 2688 2689 2690 2691 2692 2693 2694 2695 2696 2697 2698 2699 2700 2701 2702 2703 2704 2705 2706 2707 2708 2709 2710 2711 2712 2713 2714 2715 2716 2717 2718 2719 2720 2721 2722 2723 2724 2725 2726 2727 2728 2729 2730 2731 2732 2733 2734 2735 2736 2737 2738 2739 2740 2741 2742 2743 2744 2745 2746 2747 2748 2749 2750 2751 2752 2753 2754 2755 2756 2757 2758 2759 2760 2761 2762 2763 2764 2765 2766 2767 2768 2769 2770 2771 2772 2773 2774 2775 2776 2777 2778 2779 2780 2781 2782 2783 2784 2785 2786 2787 2788 2789 2790 2791 2792 2793 2794 2795 2796 2797 2798 2799 2800 2801 2802 2803 2804 2805 2806 2807 2808 2809 2810 2811 2812 2813 2814 2815 2816 2817 2818 2819 2820 2821 2822 2823 2824 2825 2826 2827 2828 2829 2830 2831 2832 2833 2834 2835 2836 2837 2838 2839 2840 2841 2842 2843 2844 2845 2846 2847 2848 2849 2850 2851 2852 2853 2854 2855 2856 2857 2858 2859 2860 2861 2862 2863 2864 2865 2866 2867 2868 2869 2870 2871 2872 2873 2874 2875 2876 2877 2878 2879 2880 2881 2882 2883 2884 2885 2886 2887 2888 2889 2890 2891 2892 2893 2894 2895 2896 2897 2898 2899 2900 2901 2902 2903 2904 2905 2906 2907 2908 2909 2910 2911 2912 2913 2914 2915 2916 2917 2918 2919 2920 2921 2922 2923 2924 2925 2926 2927 2928 2929 2930 2931 2932 2933 2934 2935 2936 2937 2938 2939 2940 2941 2942 2943 2944 2945 2946 2947 2948 2949 2950 2951 2952 2953 2954 2955 2956 2957 2958 2959 2960 2961 2962 2963 2964 2965 2966 2967 2968 2969 2970 2971 2972 2973 2974 2975 2976 2977 2978 2979 2980 2981 2982 2983 2984 2985 2986 2987 2988 2989 2990 2991 2992 2993 2994 2995 2996 2997 2998 2999 3000 3001 3002 3003 3004 3005 3006 3007 3008 3009 3010 3011 3012 3013 3014 3015 3016 3017 3018 3019 3020 3021 3022 3023 3024 3025 3026 3027 3028 3029 3030 3031 3032 3033 3034 3035 3036 3037 3038 3039 3040 3041 3042 3043 3044 3045 3046 3047 3048 3049 3050 3051 3052 3053 3054 3055 3056 3057 3058 3059 3060 3061 3062 3063 3064 3065 3066 3067 3068 3069 3070 3071 3072 3073 3074 3075 3076 3077 3078 3079 3080 3081 3082 3083 3084 3085 3086 3087 3088 3089 3090 3091 3092 3093 3094 3095 3096 3097 3098 3099 3100 3101 3102 3103 3104 3105 3106 3107 3108 3109 3110 3111 3112 3113 3114 3115 3116 3117 3118 3119 3120 3121 3122 3123 3124 3125 3126 3127 3128 3129 3130 3131 3132 3133 3134 3135 3136 3137 3138 3139 3140 3141 
</DataArray>
<DataArray type="UInt32" Name="offsets" format="ascii">
2 4 6 8 10 12 14 16 18 20 22 24 26 28 30 32 34 36 38 40 43 46 49 52 55 58 61 64 67 70 73 76 79 82 85 88 91 94 97 100 103 106 109 112 115 118 121 124 127 130 133 136 139 142 145 148 151 154 157 160 163 166 169 172 175 178 181 184 187 190 193 196 199 202 205 208 211 214 217 220 223 226 229 232 235 238 241 244 247 250 253 256 259 262 265 268 271 274 277 280 283 286 289 292 295 298 301 304 307 310 313 316 319 322 325 328 331 334 337 340 343 346 349 352 355 358 361 364 367 370 373 376 379 382 385 388 391 394 397 400 403 406 409 412 415 418 421 424 427 430 433 436 439 442 445 448 451 454 457 460 463 466 469 472 475 478 481 484 487 490 493 496 499 502 505 508 511 514 517 520 523 526 529 532 535 538 541 544 547 550 553 556 559 562 565 568 571 574 577 580 583 586 589 592 595 598 601 604 607 610 613 616 619 622 625 628 631 634 637 640 643 646 649 652 655 658 661 664 667 670 673 676 679 682 685 688 691 694 697 700 703 706 709 712 715 718 721 724 727 730 733 736 739 742 745 748 751 754 757 760 763 766 769 772 775 778 781 784 787 790 793 796 799 802 805 808 811 814 817 820 823 826 829 832 835 838 841 844 847 850 853 856 859 862 865 868 871 874 877 880 883 886 889 892 895 898 901 904 907 910 913 916 919 922 925 928 931 934 937 940 943 946 949 952 955 958 961 964 967 970 973 976 979 982 985 988 991 994 997 1000 1003 1006 1009 1012 1015 1018 1021 1024 1027 1030 1033 1036 1039 1042 1045 1048 1051 1054 1057 1060 1063 1066 1069 1072 1075 1078 1081 1084 1087 1090 1093 1096 1099 1102 1105 1108 1111 1114 1117 1120 1123 1126 1129 1132 1135 1138 1141 1144 1147 1150 1153 1156 1159 1162 1165 1168 1171 1174 1177 1180 1183 1186 1189 1192 1195 1198 1201 1204 1207 1210 1213 1216 1219 1222 1225 1228 1231 1234 1237 1240 1243 1246 1249 1252 1255 1258 1261 1264 1267 1270 1273 1276 1279 1282 1285 1288 1291 1294 1297 1300 1303 1306 1309 1312 1315 1318 1321 1324 1327 1330 1333 1336 1339 1342 1345 1348 1351 1354 1357 1360 1363 1366 1369 1372 1375 1378 1381 1384 1387 1390 1393 1396 1399 1402 1405 1408 1411 1414 1417 1420 1423 1426 1429 1432 1435 1438 1441 1444 1447 1450 1453 1456 1459 1462 1465 1468 1471 1474 1477 1480 1483 1486 1489 1492 1495 1498 1501 1504 1507 1510 1513 1516 1519 1522 1525 1528 1531 1534 1537 1540 1543 1546 1549 1552 1555 1558 1561 1564 1567 1570 1573 1576 1579 1582 1585 1588 1591 1594 1597 1600 1603 1606 1609 1612 1615 1618 1621 1624 1627 1630 1633 1636 1639 1642 1645 1648 1651 1654 1657 1660 1663 1666 1669 1672 1675 1678 1681 1684 1687 1690 1693 1696 1699 1702 1705 1708 1711 1714 1717 1720 1723 1726 1729 1732 1735 1738 1741 1744 1747 1750 1753 1756 1759 1762 1765 1768 1771 1774 1777 1780 1783 1786 1789 1792 1795 1798 1801 1804 1807 1810 1813 1816 1819 1822 1825 1828 1831 1834 1837 1840 1843 1846 1849 1852 1855 1858 1861 1864 1867 1870 1873 1876 1879 1882 1885 1888 1891 1894 1897 1900 1903 1906 1909 1912 1915 1918 1921 1924 1927 1930 1933 1936 1939 1942 1945 1948 1951 1954 1957 1960 1963 1966 1969 1972 1975 1978 1981 1984 1987 1990 1993 1996 1999 2002 2005 2008 2011 2014 2017 2020 2023 2026 2029 2032 2035 2038 2041 2044 2047 2050 2053 2056 2059 2062 2065 2068 2071 2074 2077 2080 2083 2086 2089 2092 2095 2098 2101 2104 2107 2110 2113 2116 2119 2122 2125 2128 2131 2134 2137 2140 2143 2146 2149 2152 2155 2158 2161 2164 2167 2170 2173 2176 2179 2182 2185 2188 2191 2194 2197 2200 2203 2206 2209 2212 2215 2218 2221 2224 2227 2230 2233 2236 2239 2242 2245 2248 2251 2254 2257 2260 2263 2266 2269 2272 2275 2278 2281 2284 2287 2290 2293 2296 2299 2302 2305 2308 2311 2314 2317 2320 2323 2326 2329 2332 2335 2338 2341 2344 2347 2350 2353 2356 2359 2362 2365 2368 2371 2374 2377 2380 2383 2386 2389 2392 2395 2398 2401 2404 2407 2410 2413 2416 2419 2422 2425 2428 2431 2434 2437 2440 2443 2446 2449 2452 2455 2458 2461 2464 2467 2470 2473 2476 2479 2482 2485 2488 2491 2494 2497 2500 2503 2506 2509 2512 2515 2518 2521 2524 2527 2530 2533 2536 2539 2542 2545 2548 2551 2554 2557 2560 2563 2566 2569 2572 2575 2578 2581 2584 2587 2590 2593 2596 2599 2602 2605 2608 2611 2614 2617 2620 2623 2626 2629 2632 2635 2638 2641 2644 2647 2650 2653 2656 2659 2662 2665 2668 2671 2674 2677 2680 2683 2686 2689 2692 2695 2698 2701 2704 2707 2710 2713 2716 2719 2722 2725 2728 2731 2734 2737 2740 2743 2746 2749 2752 2755 2758 2761 2764 2767 2770 2773 2776 2779 2782 2785 2788 2791 2794 2797 2800 2803 2806 2809 2812 2815 2818 2821 2824 2827 2830 2833 2836 2839 2842 2845 2848 2851 2854 2857 2860 2863 2866 2869 2872 2875 2878 2881 2884 2887 2890 2893 2896 2899 2902 2905 2908 2911 2914 2917 2920 2923 2926 2929 2932 2935 2938 2941 2944 2947 2950 2953 2956 2959 2962 2965 2968 2971 2974 2977 2980 2983 2986 2989 2992 2995 2998 3001 3004 3007 3010 3013 3016 3019 3022 3025 3028 3031 3034 3037 3040 3043 3046 3049 3052 3055 3058 3061 3064 3067 3070 3073 3076 3079 3082 3085 3088 3091 3094 3097 3100 3103 3106 3109 3112 3115 3118 3121 3124 3127 3130 3133 3136 3139 3142 
</DataArray>
<DataArray type="UInt32" Name="types" format="ascii">
3 3 3 3 3 3 3 3 3 3 3 3 3 3 3 3 3 3 3 3 5 5 5 5 5 5 5 5 5 5 5 5 5 5 5 5 5 5 5 5 5 5 5 5 5 5 5 5 5 5 5 5 5 5 5 5 5 5 5 5 5 5 5 5 5 5 5 5 5 5 5 5 5 5 5 5 5 5 5 5 5 5 5 5 5 5 5 5 5 5 5 5 5 5 5 5 5 5 5 5 5 5 5 5 5 5 5 5 5 5 5 5 5 5 5 5 5 5 5 5 5 5 5 5 5 5 5 5 5 5 5 5 5 5 5 5 5 5 5 5 5 5 5 5 5 5 5 5 5 5 5 5 5 5 5 5 5 5 5 5 5 5 5 5 5 5 5 5 5 5 5 5 5 5 5 5 5 5 5 5 5 5 5 5 5 5 5 5 5 5 5 5 5 5 5 5 5 5 5 5 5 5 5 5 5 5 5 5 5 5 5 5 5 5 5 5 5 5 5 5 5 5 5 5 5 5 5 5 5 5 5 5 5 5 5 5 5 5 5 5 5 5 5 5 5 5 5 5 5 5 5 5 5 5 5 5 5 5 5 5 5 5 5 5 5 5 5 5 5 5 5 5 5 5 5 5 5 5 5 5 5 5 5 5 5 5 5 5 5 5 5 5 5 5 5 5 5 5 5 5 5 5 5 5 5 5 5 5 5 5 5 5 5 5 5 5 5 5 5 5 5 5 5 5 5 5 5 5 5 5 5 5 5 5 5 5 5 5 5 5 5 5 5 5 5 5 5 5 5 5 5 5 5 5 5 5 5 5 5 5 5 5 5 5 5 5 5 5 5 5 5 5 5 5 5 5 5 5 5 5 5 5 5 5 5 5 5 5 5 5 5 5 5 5 5 5 5 5 5 5 5 5 5 5 5 5 5 5 5 5 5 5 5 5 5 5 5 5 5 5 5 5 5 5 5 5 5 5 5 5 5 5 5 5 5 5 5 5 5 5 5 5 5 5 5 5 5 5 5 5 5 5 5 5 5 5 5 5 5 5 5 5 5 5 5 5 5 5 5 5 5 5 5 5 5 5 5 5 5 5 5 5 5 5 5 5 5 5 5 5 5 5 5 5 5 5 5 5 5 5 5 5 5 5 5 5 5 5 5 5 5 5 5 5 5 5 5 5 5 5 5 5 5 5 5 5 5 5 5 5 5 5 5 5 5 5 5 5 5 5 5 5 5 5 5 5 5 5 5 5 5 5 5 5 5 5 5 5 5 5 5 5 5 5 5 5 5 5 5 5 5 5 5 5 5 5 5 5 5 5 5 5 5 5 5 5 5 5 5 5 5 5 5 5 5 5 5 5 5 5 5 5 5 5 5 5 5 5 5 5 5 5 5 5 5 5 5 5 5 5 5 5 5 5 5 5 5 5 5 5 5 5 5 5 5 5 5 5 5 5 5 5 5 5 5 5 5 5 5 5 5 5 5 5 5 5 5 5 5 5 5 5 5 5 5 5 5 5 5 5 5 5 5 5 5 5 5 5 5 5 5 5 5 5 5 5 5 5 5 5 5 5 5 5 5 5 5 5 5 5 5 5 5 5 5 5 5 5 5 5 5 5 5 5 5 5 5 5 5 5 5 5 5 5 5 5 5 5 5 5 5 5 5 5 5 5 5 5 5 5 5 5 5 5 5 5 5 5 5 5 5 5 5 5 5 5 5 5 5 5 5 5 5 5 5 5 5 5 5 5 5 5 5 5 5 5 5 5 5 5 5 5 5 5 5 5 5 5 5 5 5 5 5 5 5 5 5 5 5 5 5 5 5 5 5 5 5 5 5 5 5 5 5 5 5 5 5 5 5 5 5 5 5 5 5 5 5 5 5 5 5 5 5 5 5 5 5 5 5 5 5 5 5 5 5 5 5 5 5 5 5 5 5 5 5 5 5 5 5 5 5 5 5 5 5 5 5 5 5 5 5 5 5 5 5 5 5 5 5 5 5 5 5 5 5 5 5 5 5 5 5 5 5 5 5 5 5 5 5 5 5 5 5 5 5 5 5 5 5 5 5 5 5 5 5 5 5 5 5 5 5 5 5 5 5 5 5 5 5 5 5 5 5 5 5 5 5 5 5 5 5 5 5 5 5 5 5 5 5 5 5 5 5 5 5 5 5 5 5 5 5 5 5 5 5 5 5 5 5 5 5 5 5 5 5 5 5 5 5 5 5 5 5 5 5 5 5 5 5 5 5 5 5 5 5 5 5 5 5 5 5 5 5 5 5 5 5 5 5 5 5 5 5 5 5 5 5 5 5 5 5 5 5 5 5 5 5 5 5 5 5 5 5 5 5 5 5 5 5 5 5 5 5 5 5 5 5 5 5 5 5 5 5 5 
</DataArray>
</Cells>
<PointData Scalars="" Vectors="displacement," Tensors="">
<DataArray type="Float64" Name="displacement" NumberOfComponents="3" format="ascii">
-1.2696411453766611e-05 -1.3365398255594162e-05 0 -1.3683012081974087e-05 -1.8475184854402427e-05 0 -1.3683012081974087e-05 -1.8475184854402427e-05 0 -1.4846758993702098e-05 -2.4429866387938361e-05 0 -1.4846758993702098e-05 -2.4429866387938361e-05 0 -1.6210953025158955e-05 -3.1328701164181087e-05 0 -1.6210953025158955e-05 -3.1328701164181087e-05 0 -1.7481726915417858e-05 -3.8532829674344042e-05 0 -1.7481726915417858e-05 -3.8532829674344042e-05 0 -1.8626270949526796e-05 -4.5791195256574251e-05 0 -1.8626270949526796e-05 -4.5791195256574251e-05 0 -1.9747427213694365e-05 -5.3059061842441481e-05 0 -1.9747427213694365e-05 -5.3059061842441481e-05 0 -2.0979356261645974e-05 -5.9785786372362962e-05 0 -2.0979356261645974e-05 -5.9785786372362962e-05 0 -2.2292344070393829e-05 -6.6867816350524461e-05 0 -2.2292344070393829e-05 -6.6867816350524461e-05 0 -2.3127690462234277e-05 -7.2056676426000108e-05 0 -2.3127690462234277e-05 -7.2056676426000108e-05 0 -2.5978026229966937e-05 -7.8402913485379935e-05 0 4.391964347238931e-06 1.9273736088607764e-05 0 7.8530271352262788e-06 3.0055624189503337e-05 0 7.8530271352262788e-06 3.0055624189503337e-05 0 7.5309291228073593e-06 3.5255920390207259e-05 0 7.5309291228073593e-06 3.5255920390207259e-05 0 6.9911438896513515e-06 4.5659475395577868e-05 0 6.9911438896513515e-06 4.5659475395577868e-05 0 6.113661035545406e-06 5.4624834268861497e-05 0 6.113661035545406e-06 5.4624834268861497e-05 0 4.9371578945090675e-06 6.4738287474301216e-05 0 4.9371578945090675e-06 6.4738287474301216e-05 0 3.4520484330545548e-06 7.5288352966322757e-05 0 3.4520484330545548e-06 7.5288352966322757e-05 0 1.7589128079496361e-06 8.4054235401685969e-05 0 1.7589128079496361e-06 8.4054235401685969e-05 0 -1.1604394862659599e-06 9.6093633881667523e-05 0 -1.1604394862659599e-06 9.6093633881667523e-05 0 -1.8928120687928488e-07 0.0001023901517964962 0 -1.8928120687928488e-07 0.0001023901517964962 0 -1.5053179161436605e-05 0.00011423782183731108 0 -1.0342378427484234e-05 -5.1084495107865898e-06 0 -7.6646050457777904e-06 -1.7408856461347095e-06 0 -9.7184412855812532e-06 -4.358526886077131e-06 0 -9.0204193828563082e-06 -2.8542920413179674e-06 0 -7.6646050457777904e-06 -1.7408856461347095e-06 0 -1.0342378427484234e-05 -5.1084495107865898e-06 0 -1.8751457327882155e-05 -1.0280604730717594e-05 0 -1.6127441757551268e-05 -7.4997013110169726e-06 0 -1.6788861095940303e-05 -1.0029661150958869e-05 0 -1.6788861095940303e-05 -1.0029661150958869e-05 0 -1.6127441757551268e-05 -7.4997013110169717e-06 0 -1.4743145039319633e-05 -8.9447989733875429e-06 0 -1.0413333230832641e-05 3.1368303635462311e-06 0 -4.5406327257992715e-06 7.5353776094730157e-07 0 -9.4698075686607423e-06 1.6701771196951456e-06 0 -7.3816279549817859e-06 -2.8144007911425096e-06 0 -6.701833974054048e-06 -1.8375835861755973e-06 0 -3.2483647657307477e-06 -9.1144352364401205e-07 0 -5.3187258295260634e-06 2.2983190927859829e-06 0 -4.5406327257992715e-06 7.5353776094730157e-07 0 -1.0413333230832641e-05 3.1368303635462311e-06 0 -3.8696438968981677e-06 -1.9623031154050302e-06 0 -7.3816279549817859e-06 -2.8144007911425096e-06 0 -3.2483647657307477e-06 -9.1144352364401205e-07 0 -1.9055649904403941e-05 -6.0714130847332769e-06 0 -2.3365669586462137e-05 -8.0215900990672902e-06 0 -1.8406067104927253e-05 -5.3327956284061259e-06 0 -3.6281089860492766e-05 1.1448778346476135e-05 0 -2.8804583653813621e-05 7.864726842484757e-06 0 -2.8097353898599017e-05 7.2610580596321367e-06 0 -1.5491625505423033e-06 6.5971648184065667e-07 0 -1.94623380292212e-06 1.3509175910306757e-06 0 -2.3801484858506425e-06 3.1483501106100626e-07 0 -2.983886925705073e-06 1.681270273761594e-06 0 -2.3801484858506429e-06 3.1483501106100632e-07 0 -1.94623380292212e-06 1.3509175910306757e-06 0 -3.7236185078042613e-06 6.7798894697113496e-07 0 -4.8822722658379726e-06 4.3189215684080167e-07 0 -3.2433519123388346e-06 8.8701582215640828e-07 0 -1.6472675072527958e-09 -4.9195395585037867e-10 0 -1.2258025449713164e-09 -3.3210748729901505e-10 0 -1.3592818427805185e-06 -7.5972757330505126e-07 0 -1.2798795062048375e-09 2.8671452281092786e-10 0 -1.5525860679247575e-09 2.9815639651565508e-10 0 -1.4264393287645342e-06 5.9122271196927988e-07 0 -2.1691213350190423e-05 -1.3737839959153668e-05 0 -2.1582972958311863e-05 -1.3726099640419148e-05 0 -1.8751457327882155e-05 -1.0280604730717594e-05 0 3.2681125072363216e-06 2.168683363733187e-05 0 -1.2996744383741129e-06 1.431049881688155e-05 0 -2.3749606479540947e-06 1.4948089831226708e-05 0 -3.7393742885803328e-05 -0.00012301230502386392 0 -3.0372095744787044e-05 -0.00011514193771742945 0 -3.7480120981477332e-05 -0.00011164759892837972 0 -4.6300986973014303e-05 0.00026582897166880723 0 -6.4645578325811694e-05 0.00024663957913490295 0 -4.6381350376078318e-05 0.00023965007978411231 0 -4.6300986973014303e-05 0.00026582897166880723 0 -4.6381350376078318e-05 0.00023965007978411231 0 -2.8827442326538543e-05 0.00024706129655074715 0 -3.7393742885803328e-05 -0.00012301230502386392 0 -3.7480120981477332e-05 -0.00011164759892837972 0 -4.5111361053912302e-05 -0.00011458785925884961 0 -6.7884239693903725e-05 0.000224771207645803 0 -4.4728495349487139e-05 0.00021441284005231873 0 -4.6381350376078318e-05 0.00023965007978411231 0 -2.883136957598638e-05 -0.00010510781346902091 0 -3.7668075552910119e-05 -9.9981725923934845e-05 0 -3.7480120981477332e-05 -0.00011164759892837972 0 -3.7236185078042613e-06 6.7798894697113496e-07 0 -3.2433519123388346e-06 8.8701582215640828e-07 0 -2.4018947276826618e-06 8.3115329928637409e-07 0 3.2681125072363216e-06 2.168683363733187e-05 0 -4.9178671175603055e-06 1.927541037215785e-05 0 -1.2996744383741129e-06 1.431049881688155e-05 0 -8.2283935203052231e-05 6.5249113723225469e-05 0 -7.3593135614267861e-05 4.8482432235426346e-05 0 -5.9020752569769076e-05 5.1900783902379411e-05 0 -4.3414510531640111e-05 -2.5019486062433977e-05 0 -4.813154948606268e-05 -3.2359927275732686e-05 0 -3.753225631511504e-05 -2.6534411712529954e-05 0 -1.8073024288501106e-05 -1.1143081723468216e-05 0 -2.1691213350190423e-05 -1.3737839959153668e-05 0 -1.8751457327882155e-05 -1.0280604730717594e-05 0 -3.9986551599472918e-05 4.226527807586598e-05 0 -3.4643136530934751e-05 2.579357615014438e-05 0 -2.7478872898823265e-05 2.7537196876383649e-05 0 -1.9648208396296993e-05 8.4743609694437672e-06 0 -2.7045445240424295e-05 1.2262080343414986e-05 0 -2.5549319732935517e-05 7.7723908578991666e-06 0 -1.1941734749463391e-05 -1.3205975393631956e-06 0 -1.0206206057486695e-05 1.5276755370977812e-06 0 -1.347401233319219e-05 -3.3889348427228035e-06 0 -3.6459936879649352e-05 -8.7960663850211664e-05 0 -2.9909519418367805e-05 -8.4406260455683569e-05 0 -3.6298097873529584e-05 -7.519552689879822e-05 0 -4.4921251493845713e-05 0.00018884203313728531 0 -5.9831814431548816e-05 0.00018145559138923488 0 -4.1063489599576203e-05 0.0001605002640253149 0 -3.6298097873529584e-05 -7.519552689879822e-05 0 -2.9909519418367805e-05 -8.4406260455683569e-05 0 -2.8727371469704905e-05 -7.3406650043850909e-05 0 -4.1063489599576203e-05 0.0001605002640253149 0 -5.9831814431548816e-05 0.00018145559138923488 0 -5.8721369614924004e-05 0.0001607192063951394 0 -1.9648208396296993e-05 8.4743609694437672e-06 0 -2.5549319732935517e-05 7.7723908578991666e-06 0 -1.7430796479038292e-05 5.2784860426092576e-06 0 -1.1956759333467379e-05 -4.7272365556358557e-06 0 -9.2957188355703391e-06 3.1045221672879198e-06 0 -1.1941734749463391e-05 -1.3205975393631956e-06 0 -3.9986551599472918e-05 4.226527807586598e-05 0 -4.6360379391225043e-05 3.6288623476893867e-05 0 -3.4643136530934751e-05 2.5793576150144383e-05 0 3.2681125072363216e-06 2.168683363733187e-05 0 1.230443591736225e-05 5.4277197526497921e-05 0 -5.2593151462466995e-06 5.5989566914545766e-05 0 -2.9977653103853247e-05 -3.3625068269071735e-05 0 -2.6827597653749321e-05 -3.1883159674053872e-05 0 -3.0444927714776241e-05 -3.1742339185856514e-05 0 -1.6396933949249098e-05 -3.8333065014024268e-05 0 -1.5857763462026232e-05 -3.6241737867661395e-05 0 -1.7359745542739111e-05 -3.7217883330322001e-05 0 -7.6898138353998334e-06 5.5621675975718802e-06 0 -1.0206206057486695e-05 1.5276755370977812e-06 0 -1.1941734749463391e-05 -1.3205975393631956e-06 0 -1.4326075337876227e-05 -0.00011180688795023079 0 -2.0861815479255905e-05 -0.00010315940156363765 0 -2.3165227864728513e-05 -0.00011295570625828878 0 -0.0001088231449005264 0.00024476811622586858 0 -8.8726298234932942e-05 0.00022237281462873199 0 -8.4705326352317603e-05 0.0002421550736439147 0 -9.5401840492407558e-10 -2.5427903543713302e-10 0 -6.9356066808351455e-07 -1.9761008062839141e-07 0 -8.7497855349194923e-07 -4.7123753924364463e-07 0 -1.0874334375874259e-09 2.9852351544601564e-10 0 -1.0808914100742802e-06 5.8223503452344459e-07 0 -9.3913206279648804e-07 6.0970511588113617e-07 0 -3.9986551599472918e-05 4.226527807586598e-05 0 -2.7026083202982503e-05 4.0516416116517284e-05 0 -3.6508101737453975e-05 6.1834132473056509e-05 0 -2.0031087864088508e-05 5.4798304887021262e-05 0 -3.6508101737453975e-05 6.1834132473056509e-05 0 -2.7026083202982503e-05 4.0516416116517291e-05 0 -9.382729013746674e-06 3.4652383492369865e-05 0 3.2681125072363216e-06 2.168683363733187e-05 0 -5.2593151462466995e-06 5.5989566914545766e-05 0 -0.00010843089082689348 0.00020012982884388904 0 -8.0259246023781634e-05 0.00020066766383361974 0 -8.8726298234932942e-05 0.00022237281462873199 0 -1.1145511014286878e-05 -8.9797109963366017e-05 0 -2.2947825226951974e-05 -9.2808270466616195e-05 0 -2.0861815479255902e-05 -0.00010315940156363765 0 -1.7935277509013277e-05 -3.0941804842887487e-05 0 -1.8388947412699708e-05 -2.7751867513919295e-05 0 -2.0170416620729779e-05 -3.0117501766957099e-05 0 -1.2097577663331159e-05 -1.442991074537312e-06 0 -1.347401233319219e-05 -3.3889348427228035e-06 0 -1.0206206057486695e-05 1.5276755370977812e-06 0 -1.5316429982511531e-05 -7.1059185738005193e-06 0 -1.7017072290501103e-05 -1.0778688935161644e-05 0 -1.4906663623865047e-05 -1.0463692088691686e-05 0 -1.0983493509702442e-05 -1.8093272035271352e-05 0 -1.1263448749672945e-05 -1.5203198735528258e-05 0 -1.4526775679369517e-05 -1.916422836864789e-05 0 -9.6857790886209291e-05 0.00010649154362643966 0 -7.4313829332637996e-05 9.1756058970725405e-05 0 -8.2460702897489054e-05 0.00011907056547410825 0 -6.411905112503094e-05 -9.3505156683673557e-05 0 -5.5593960710835261e-05 -0.00010386011967928509 0 -5.2347254280219851e-05 -9.4367712028898962e-05 0 1.5198392613792652e-05 0.00019446816117292946 0 -5.5483532247039384e-06 0.00022172666285421159 0 -1.0384525968268169e-05 0.00020106024856282468 0 -1.2670128683643958e-05 -0.00010060935135031483 0 -2.0861815479255902e-05 -0.00010315940156363765 0 -1.4326075337876227e-05 -0.00011180688795023079 0 -0.0001088231449005264 0.00024476811622586858 0 -0.0001088148327730551 0.00022279008267389285 0 -8.8726298234932942e-05 0.00022237281462873199 0 -2.508522363085942e-05 -2.8265480994410935e-05 0 -2.5653621991207701e-05 -2.5702913030657371e-05 0 -2.722224142367264e-05 -2.8376111655735199e-05 0 -1.285077318921571e-05 -1.3479383149443226e-05 0 -1.5644531599370831e-05 -1.6352278020947249e-05 0 -1.6197173309726631e-05 -2.4108477435830969e-05 0 -2.508522363085942e-05 -2.8265480994410935e-05 0 -2.3866030306057768e-05 -2.6039416153310586e-05 0 -2.5653621991207701e-05 -2.5702913030657371e-05 0 -1.3969661386021375e-05 -1.5291907599999113e-05 0 -1.4526775679369517e-05 -1.916422836864789e-05 0 -1.1263448749672945e-05 -1.5203198735528258e-05 0 -3.0941975117198922e-05 -4.2339101861827298e-05 0 -3.3575304218484547e-05 -5.5264031537568955e-05 0 -2.5825535745687716e-05 -4.5153576478899006e-05 0 -2.442107779865014e-09 2.3491201092066446e-10 0 -3.2483647657307477e-06 -9.1144352364401205e-07 0 -2.26368639245721e-06 -1.6994998806046793e-07 0 -3.4790294545500302e-09 -5.131164446411138e-10 0 -3.0617246886309532e-06 -2.1913259193455491e-07 0 -4.5406327257992715e-06 7.5353776094730157e-07 0 -2.9977653103853247e-05 -3.3625068269071735e-05 0 -2.6570972274483361e-05 -3.4323838469709038e-05 0 -2.6827597653749321e-05 -3.1883159674053872e-05 0 -1.7290557276695505e-05 -3.8472020386465499e-05 0 -1.6396933949249098e-05 -3.8333065014024268e-05 0 -1.7359745542739111e-05 -3.7217883330322001e-05 0 -2.5436956702683206e-09 -7.4855390744809168e-10 0 -3.9108426098832713e-06 -6.827379666026502e-07 0 -3.0617246886309528e-06 -2.1913259193455515e-07 0 -2.0050084694947964e-09 3.5144339290911763e-10 0 -2.26368639245721e-06 -1.6994998806046793e-07 0 -3.0597754190338299e-06 9.0265616550224561e-08 0 -2.3801484858506425e-06 3.1483501106100626e-07 0 -2.0780851491446837e-06 -6.5772151056638432e-07 0 -1.6795148965657136e-06 -1.9618475803814411e-08 0 -1.1009803046998454e-05 -3.6138436695426194e-06 0 -9.2937672789428052e-06 -2.1168326145411437e-06 0 -6.701833974054048e-06 -1.8375835861755973e-06 0 -1.5915775131797147e-05 4.0669953637308492e-06 0 -9.469807568660744e-06 1.6701771196951456e-06 0 -1.3154311128226338e-05 1.8659779688421457e-06 0 -1.7651794964192227e-05 -1.8961122389349232e-05 0 -1.6302547185205611e-05 -1.5630180081099719e-05 0 -1.9043322999752484e-05 -1.7260112610095711e-05 0 -1.7441949105061549e-05 -1.3868983682027814e-05 0 -1.4906663623865047e-05 -1.0463692088691686e-05 0 -1.7017072290501103e-05 -1.0778688935161644e-05 0 1.0946269337702514e-05 0.00024023689983961372 0 -1.0687317469991034e-05 0.00024201358871985405 0 -5.5483532247039384e-06 0.00022172666285421159 0 -6.4419123433281575e-05 -0.00011370315652904051 0 -5.3760849769828065e-05 -0.00011253218467604967 0 -5.5593960710835261e-05 -0.00010386011967928509 0 -1.7441949105061549e-05 -1.3868983682027814e-05 0 -1.9043322999752484e-05 -1.7260112610095711e-05 0 -1.6302547185205611e-05 -1.5630180081099719e-05 0 -1.8388947412699708e-05 -2.7751867513919295e-05 0 -1.6056391009937346e-05 -2.7037792571179279e-05 0 -1.7715995296107747e-05 -2.3506330469270823e-05 0 -5.9150525609863848e-05 0.00013938446165752833 0 -5.137932630047855e-05 0.00010988647335013827 0 -3.9501251591869686e-05 0.00012036184407085718 0 -3.4790294545500302e-09 -5.131164446411138e-10 0 -3.6709006809276358e-09 1.9035064941379178e-10 0 -3.0617246886309528e-06 -2.1913259193455515e-07 0 -2.7155245197556434e-09 -2.4152241578103491e-10 0 -2.442107779865014e-09 2.3491201092066446e-10 0 -2.26368639245721e-06 -1.6994998806046793e-07 0 -2.3801484858506425e-06 3.1483501106100626e-07 0 -3.3243163075145501e-06 -1.7417353438184006e-07 0 -2.0780851491446837e-06 -6.5772151056638432e-07 0 -2.5206546865014236e-05 0.00022464659813037634 0 -4.6381350376078318e-05 0.00023965007978411231 0 -4.4728495349487139e-05 0.00021441284005231873 0 -4.6461464432454871e-05 -0.00010452824232926382 0 -3.7480120981477332e-05 -0.00011164759892837972 0 -3.7668075552910119e-05 -9.9981725923934845e-05 0 -3.3575304218484547e-05 -5.5264031537568955e-05 0 -2.6775991382764148e-05 -5.5290467438985367e-05 0 -2.5825535745687716e-05 -4.5153576478899006e-05 0 -9.2378640819357274e-07 4.2413365080499066e-07 0 -1.2855378040543077e-06 8.2410050484375091e-07 0 -1.1423813771525144e-06 4.5661719223614601e-07 0 -1.0899227514869317e-05 1.4180813477562956e-06 0 -8.1193443846699967e-06 1.3361470054334847e-06 0 -1.2326495887775382e-05 3.0688025741752676e-06 0 -1.6056391009937346e-05 -2.7037792571179279e-05 0 -1.5028609598029516e-05 -2.3484810089877809e-05 0 -1.7715995296107747e-05 -2.3506330469270823e-05 0 -1.1423813771525144e-06 4.5661719223614601e-07 0 -1.2855378040543077e-06 8.2410050484375091e-07 0 -1.3995990455283554e-06 8.923621152510445e-07 0 -1.2855378040543077e-06 8.2410050484375091e-07 0 -8.2049167320988777e-07 5.0945334261036972e-07 0 -1.4623404850696998e-06 8.8493032398974876e-07 0 -1.1547365935599491e-06 7.3585572727362905e-07 0 -1.4623404850696998e-06 8.8493032398974876e-07 0 -8.2049167320988777e-07 5.0945334261036972e-07 0 -2.7598806989280849e-05 -2.7159600106868599e-05 0 -2.5653621991207701e-05 -2.5702913030657371e-05 0 -2.7114566613222086e-05 -2.4794566336626054e-05 0 -1.5316429982511531e-05 -7.1059185738005193e-06 0 -1.4906663623865047e-05 -1.0463692088691686e-05 0 -1.3660061673479262e-05 -5.8536918165358766e-06 0 -1.7935277509013277e-05 -3.0941804842887487e-05 0 -1.6056391009937346e-05 -2.7037792571179279e-05 0 -1.8388947412699708e-05 -2.7751867513919295e-05 0 -7.6898138353998334e-06 5.5621675975718802e-06 0 -1.1941734749463391e-05 -1.320597539363195e-06 0 -9.2957188355703391e-06 3.1045221672879198e-06 0 1.3212858103134239e-05 0.00021701312611377774 0 1.0946269337702514e-05 0.00024023689983961372 0 -5.5483532247039384e-06 0.00022172666285421159 0 -6.4406964359744911e-05 -0.00010384328787735999 0 -6.4419123433281575e-05 -0.00011370315652904051 0 -5.5593960710835261e-05 -0.00010386011967928509 0 -6.411905112503094e-05 -9.3505156683673557e-05 0 -6.4406964359744911e-05 -0.00010384328787735999 0 -5.5593960710835261e-05 -0.00010386011967928509 0 1.5198392613792652e-05 0.00019446816117292946 0 1.3212858103134239e-05 0.00021701312611377774 0 -5.5483532247039384e-06 0.00022172666285421159 0 -4.4819261203868121e-06 8.7123502505085793e-06 0 -4.6252653982177023e-06 6.9891660239855881e-06 0 -7.6898138353998334e-06 5.5621675975718802e-06 0 -3.001318084967857e-06 9.950380265244399e-07 0 -1.9839772627477013e-06 9.6241492151304522e-07 0 -3.2433519123388346e-06 8.8701582215640828e-07 0 -1.8495828162026691e-06 8.6219779241276669e-07 0 -3.2433519123388346e-06 8.8701582215640828e-07 0 -1.9839772627477013e-06 9.6241492151304522e-07 0 -5.1247450750137537e-06 0.00012177173468908223 0 2.2083216915704346e-07 0.00013737052544273053 0 -2.1785199395631688e-05 0.00013850736597795639 0 2.2083216915704346e-07 0.00013737052544273053 0 -5.8219838676923871e-06 0.00015392203903341923 0 -2.1785199395631688e-05 0.00013850736597795639 0 -1.1956759333467379e-05 -4.7272365556358557e-06 0 -1.1941734749463391e-05 -1.3205975393631963e-06 0 -1.3660061673479262e-05 -5.8536918165358766e-06 0 -1.8429384309980428e-05 -3.7925628441313013e-05 0 -1.7359745542739111e-05 -3.7217883330322001e-05 0 -1.8664876822926849e-05 -3.5237738132083438e-05 0 -2.322485893047274e-05 -3.5372255869989611e-05 0 -2.4111494198257573e-05 -3.1966594556872409e-05 0 -2.6827597653749321e-05 -3.1883159674053872e-05 0 -4.6252653982177023e-06 6.9891660239855881e-06 0 -6.9436973232015454e-06 4.2750690878485772e-06 0 -7.6898138353998334e-06 5.5621675975718802e-06 0 -0.0001088148327730551 0.00022279008267389285 0 -0.00010843089082689348 0.00020012982884388904 0 -8.8726298234932942e-05 0.00022237281462873199 0 -1.1145511014286878e-05 -8.9797109963366017e-05 0 -2.0861815479255902e-05 -0.00010315940156363765 0 -1.2670128683643958e-05 -0.00010060935135031483 0 -2.3365669586462137e-05 -8.0215900990672902e-06 0 -2.3071762208298566e-05 -7.8776693390071556e-06 0 -1.8406067104927253e-05 -5.3327956284061259e-06 0 -3.6281089860492766e-05 1.1448778346476135e-05 0 -2.8097353898599017e-05 7.2610580596321367e-06 0 -3.4953241695818221e-05 1.1600821910733689e-05 0 -1.1956759333467379e-05 -4.7272365556358557e-06 0 -1.4906663623865047e-05 -1.0463692088691686e-05 0 -1.1867208059444451e-05 -1.116121258757805e-05 0 -1.285077318921571e-05 -1.3479383149443226e-05 0 -1.6197173309726631e-05 -2.4108477435830969e-05 0 -9.4536304671310327e-06 -2.5565095743992538e-05 0 -1.3969661386021375e-05 -1.5291907599999113e-05 0 -1.4906663623865047e-05 -1.0463692088691686e-05 0 -1.6302547185205611e-05 -1.5630180081099719e-05 0 -1.7441949105061549e-05 -1.3868983682027814e-05 0 -1.6302547185205611e-05 -1.5630180081099719e-05 0 -1.4906663623865047e-05 -1.0463692088691686e-05 0 -3.7393742885803328e-05 -0.00012301230502386392 0 -2.9718490210375303e-05 -0.0001230076900593258 0 -3.0372095744787044e-05 -0.00011514193771742945 0 -4.6300986973014303e-05 0.00026582897166880723 0 -6.6413537752514003e-05 0.00026586063114111407 0 -6.4645578325811694e-05 0.00024663957913490295 0 -2.7322740437836858e-05 0.00026550959022334972 0 -4.6300986973014303e-05 0.00026582897166880723 0 -2.8827442326538543e-05 0.00024706129655074715 0 -4.5866733688714205e-05 -0.00012294591456230798 0 -3.7393742885803328e-05 -0.00012301230502386392 0 -4.5111361053912302e-05 -0.00011458785925884961 0 -1.4881446028093764e-05 2.5698208192624907e-05 0 -2.7026083202982503e-05 4.0516416116517291e-05 0 -2.7478872898823265e-05 2.7537196876383649e-05 0 -2.0981606228789066e-05 -1.7103205326360002e-05 0 -2.3182832777021912e-05 -2.0234035657126729e-05 0 -2.1496553241634927e-05 -2.0499471118429998e-05 0 -1.3969661386021375e-05 -1.5291907599999113e-05 0 -1.6302547185205611e-05 -1.5630180081099719e-05 0 -1.4526775679369517e-05 -1.916422836864789e-05 0 -1.7651794964192227e-05 -1.8961122389349232e-05 0 -1.4526775679369517e-05 -1.916422836864789e-05 0 -1.6302547185205611e-05 -1.5630180081099719e-05 0 -2.0310676386157834e-05 -4.7567184477948102e-05 0 -1.8602313630619555e-05 -3.567400373932116e-05 0 -2.5825535745687716e-05 -4.5153576478899006e-05 0 -8.2283935203052231e-05 6.5249113723225469e-05 0 -5.9020752569769076e-05 5.1900783902379411e-05 0 -7.291657928146495e-05 7.2562626939344976e-05 0 -1.880739972808636e-05 -9.5403089327931063e-06 0 -2.3300215342138324e-05 -1.4099833112250272e-05 0 -1.7500214691577513e-05 -1.1164115797705455e-05 0 -2.0482750474787029e-05 -1.6042381126358405e-05 0 -1.7500214691577513e-05 -1.1164115797705455e-05 0 -2.3300215342138324e-05 -1.4099833112250272e-05 0 -2.5934140619234741e-05 -2.9924798495788157e-05 0 -2.3174762805228168e-05 -2.986683664590954e-05 0 -2.508522363085942e-05 -2.8265480994410935e-05 0 -6.620320103975833e-05 0.00010652786724209729 0 -8.2460702897489054e-05 0.00011907056547410825 0 -7.4313829332637996e-05 9.1756058970725405e-05 0 -2.2487367111503774e-05 -8.4175321880622355e-06 0 -2.7881798898939237e-05 -1.2189916121378487e-05 0 -2.335236109899206e-05 -1.0909319767357528e-05 0 -2.8797505844105724e-05 -1.518384851911734e-05 0 -2.335236109899206e-05 -1.0909319767357528e-05 0 -2.7881798898939237e-05 -1.2189916121378487e-05 0 -4.3206290434092933e-05 2.7182425383236219e-05 0 -4.2852274784742475e-05 2.0578974003281974e-05 0 -3.3680021788928588e-05 1.8549895778525607e-05 0 -3.350784172345888e-05 1.357665562631276e-05 0 -3.3680021788928588e-05 1.8549895778525607e-05 0 -4.2852274784742475e-05 2.0578974003281974e-05 0 -2.4404744391486222e-05 -2.3366229733077498e-05 0 -2.2153501986130834e-05 -2.3647911074059971e-05 0 -2.1496553241634927e-05 -2.0499471118429998e-05 0 -4.813154948606268e-05 -3.2359927275732686e-05 0 -4.4468437446715727e-05 -3.535094907068114e-05 0 -3.753225631511504e-05 -2.6534411712529954e-05 0 -1.3038380441051688e-05 0.00010098160437694415 0 -2.5403692060154247e-05 8.0215949793710522e-05 0 -9.025040486446309e-06 7.6584984194744715e-05 0 -1.2097577663331159e-05 -1.442991074537312e-06 0 -1.3353085629894455e-05 -4.0004626862367224e-06 0 -1.5243129047631886e-05 -5.720166207313967e-06 0 -3.3481239847589673e-06 2.321287395813132e-06 0 -2.5773485038576939e-06 3.5277730664537224e-06 0 -2.2882457054780714e-06 2.4141615859031345e-06 0 -7.513770973399542e-05 0.0001745739934953161 0 -5.9831814431548816e-05 0.00018145559138923488 0 -8.0259246023781634e-05 0.00020066766383361974 0 -2.3198071885223235e-05 -8.0069385572161528e-05 0 -2.9909519418367805e-05 -8.4406260455683569e-05 0 -2.2947825226951971e-05 -9.2808270466616182e-05 0 -1.1956759333467379e-05 -4.7272365556358557e-06 0 -1.3660061673479262e-05 -5.8536918165358766e-06 0 -1.4906663623865047e-05 -1.0463692088691686e-05 0 -2.4111494198257573e-05 -3.1966594556872409e-05 0 -2.3174762805228168e-05 -2.986683664590954e-05 0 -2.5934140619234741e-05 -2.9924798495788157e-05 0 -1.7651794964192227e-05 -1.8961122389349232e-05 0 -1.9719547302012655e-05 -2.0828778851545508e-05 0 -1.7715995296107747e-05 -2.3506330469270823e-05 0 -1.2258025449713164e-09 -3.3210748729901505e-10 0 -8.7497855349194923e-07 -4.7123753924364463e-07 0 -1.3592818427805185e-06 -7.5972757330505126e-07 0 -1.2798795062048375e-09 2.8671452281092786e-10 0 -1.4264393287645342e-06 5.9122271196927988e-07 0 -1.0808914100742802e-06 5.8223503452344459e-07 0 -1.8602313630619555e-05 -3.567400373932116e-05 0 -2.5160469154772319e-05 -3.5876134291572769e-05 0 -2.5825535745687716e-05 -4.5153576478899006e-05 0 -1.0899227514869317e-05 1.4180813477562956e-06 0 -1.2326495887775382e-05 3.0688025741752676e-06 0 -1.5263386073678448e-05 2.7070721344424551e-06 0 -2.2791610264514238e-05 1.549659596165125e-05 0 -2.7478872898823261e-05 2.7537196876383649e-05 0 -3.4643136530934751e-05 2.5793576150144383e-05 0 -1.2951372603843702e-06 -3.4706144307197613e-07 0 -6.9356066808351455e-07 -1.9761008062839141e-07 0 -1.1765581988060008e-06 4.1011023294145426e-08 0 -8.5327732154322631e-07 1.710841328436958e-07 0 -1.1765581988060008e-06 4.1011023294145426e-08 0 -6.9356066808351455e-07 -1.9761008062839141e-07 0 -1.1547365935599491e-06 7.3585572727362905e-07 0 -9.3913206279648814e-07 6.0970511588113617e-07 0 -1.9839772627477013e-06 9.6241492151304522e-07 0 -1.8495828162026691e-06 8.6219779241276669e-07 0 -1.9839772627477013e-06 9.6241492151304522e-07 0 -9.3913206279648804e-07 6.0970511588113617e-07 0 -1.9648208396296993e-05 8.4743609694437672e-06 0 -1.5581970528177693e-05 9.8514885848048225e-06 0 -2.2791610264514238e-05 1.549659596165125e-05 0 -3.3481239847589673e-06 2.321287395813132e-06 0 -4.0625022452676921e-06 3.3245190469381965e-06 0 -2.5773485038576939e-06 3.5277730664537224e-06 0 -2.983886925705073e-06 1.681270273761594e-06 0 -3.8650970467031222e-06 5.9529287626378473e-07 0 -2.3801484858506425e-06 3.1483501106100626e-07 0 -1.2326495887775382e-05 3.0688025741752676e-06 0 -8.1193443846699967e-06 1.3361470054334847e-06 0 -9.4453335651694385e-06 3.7213009773136918e-06 0 -6.0577609190539662e-06 3.0061625776603602e-06 0 -4.2996598814997064e-06 5.126721956288286e-06 0 -4.0625022452676921e-06 3.3245190469381961e-06 0 -8.1821016653987496e-06 -1.199682210781023e-06 0 -8.9740298848857368e-06 -2.1499832895825922e-06 0 -6.6595852273846229e-06 -5.108284625762911e-07 0 -7.7199355707670845e-06 -1.6149881318990516e-06 0 -6.6595852273846229e-06 -5.108284625762911e-07 0 -8.9740298848857368e-06 -2.1499832895825922e-06 0 -3.6709006809275784e-09 1.9035064941379596e-10 0 -2.5436956702683206e-09 -7.4855390744809168e-10 0 -3.0617246886309528e-06 -2.1913259193455515e-07 0 -2.0050084694947964e-09 3.5144339290911763e-10 0 -2.7155245197556434e-09 -2.4152241578103491e-10 0 -2.26368639245721e-06 -1.6994998806046793e-07 0 1.5433090433371647e-05 7.812957780528548e-05 0 -9.025040486446309e-06 7.6584984194744715e-05 0 -5.2593151462466995e-06 5.5989566914545766e-05 0 -3.001318084967857e-06 9.950380265244399e-07 0 -4.4614592531279679e-06 5.542128056847896e-07 0 -2.9597414773286058e-06 1.1135259825876882e-06 0 -1.6127441757551268e-05 -7.4997013110169726e-06 0 -1.292475931388321e-05 -5.5299175500263755e-06 0 -1.4743145039319633e-05 -8.9447989733875429e-06 0 -2.1311857966843387e-05 -3.2396401367890556e-05 0 -2.3174762805228168e-05 -2.986683664590954e-05 0 -2.4111494198257573e-05 -3.1966594556872409e-05 0 -1.9055649904403941e-05 -6.0714130847332769e-06 0 -1.8406067104927253e-05 -5.3327956284061259e-06 0 -1.5431108840189071e-05 -4.1563929921601381e-06 0 -2.8804583653813621e-05 7.864726842484757e-06 0 -2.2932905378162852e-05 4.9196000919727986e-06 0 -2.8097353898599017e-05 7.2610580596321367e-06 0 -2.005569431163041e-05 -2.3747576712621945e-05 0 -1.7715995296107747e-05 -2.3506330469270823e-05 0 -1.9719547302012655e-05 -2.0828778851545508e-05 0 -1.8406067104927253e-05 -5.3327956284061259e-06 0 -1.5396165132381015e-05 -4.028386294754004e-06 0 -1.4756149082428471e-05 -3.6031157708966904e-06 0 -1.9772718734904441e-05 4.7759473375249431e-06 0 -1.7430796479038292e-05 5.2784860426092576e-06 0 -2.5549319732935517e-05 7.7723908578991666e-06 0 -1.9454841346160205e-05 -6.1556776530736295e-06 0 -1.5396165132381015e-05 -4.028386294754004e-06 0 -1.8406067104927253e-05 -5.3327956284061259e-06 0 -6.3292698982267554e-06 -4.3433285485521063e-08 0 -7.7169917680775922e-06 -5.6659597876993858e-07 0 -8.4437514101286669e-06 -9.5740917157875607e-07 0 -5.7514405193731576e-06 1.1457970968484682e-07 0 -8.1193443846699967e-06 1.3361470054334847e-06 0 -8.8079171471939405e-06 1.3826761541225068e-07 0 -2.7045445240424295e-05 1.2262080343414986e-05 0 -1.9648208396296993e-05 8.4743609694437672e-06 0 -2.2791610264514238e-05 1.549659596165125e-05 0 -2.4404744391486222e-05 -2.3366229733077498e-05 0 -2.1496553241634927e-05 -2.0499471118429998e-05 0 -2.3182832777021912e-05 -2.0234035657126729e-05 0 -1.4983487750204575e-05 0.00017573461555138082 0 -1.0384525968268169e-05 0.00020106024856282468 0 -2.9055210632579191e-05 0.00019833920549396197 0 -4.8757666071637259e-05 -8.2628016108702353e-05 0 -5.2347254280219851e-05 -9.4367712028898962e-05 0 -4.3763495801631759e-05 -9.2605703666457092e-05 0 -1.2951372603843702e-06 -3.4706144307197613e-07 0 -8.7497855349194933e-07 -4.7123753924364463e-07 0 -6.9356066808351455e-07 -1.9761008062839141e-07 0 -1.8495828162026691e-06 8.6219779241276669e-07 0 -9.3913206279648804e-07 6.0970511588113617e-07 0 -1.0808914100742802e-06 5.8223503452344459e-07 0 -1.6472675072527958e-09 -4.9195395585037867e-10 0 -1.3592818427805185e-06 -7.5972757330505126e-07 0 -1.6412917965134175e-06 -8.0158034693614478e-07 0 -1.5525860679247575e-09 2.9815639651565508e-10 0 -1.5217760593597314e-06 4.5679522537417993e-07 0 -1.4264393287645342e-06 5.9122271196927988e-07 0 -1.6127441757551268e-05 -7.4997013110169726e-06 0 -1.8751457327882155e-05 -1.0280604730717594e-05 0 -1.7943155099765802e-05 -9.2650897453406182e-06 0 -1.9933060071225877e-05 -1.1993794670308265e-05 0 -1.7943155099765802e-05 -9.2650897453406182e-06 0 -1.8751457327882155e-05 -1.0280604730717594e-05 0 -4.1072237796062364e-05 8.5984409971016359e-05 0 -3.6508101737453975e-05 6.1834132473056509e-05 0 -2.5403692060154247e-05 8.0215949793710522e-05 0 -2.0031087864088508e-05 5.4798304887021262e-05 0 -2.5403692060154251e-05 8.0215949793710522e-05 0 -3.6508101737453975e-05 6.1834132473056509e-05 0 -5.4894944321826176e-06 1.2867549438096031e-05 0 -3.0537238570586237e-06 8.7802666753835128e-06 0 -1.2996744383741129e-06 1.431049881688155e-05 0 -1.6127441757551268e-05 -7.4997013110169726e-06 0 -1.3353085629894455e-05 -4.0004626862367224e-06 0 -1.292475931388321e-05 -5.5299175500263755e-06 0 -1.5491625505423033e-06 6.5971648184065667e-07 0 -1.1423813771525144e-06 4.5661719223614601e-07 0 -1.3995990455283554e-06 8.923621152510445e-07 0 -2.0981606228789066e-05 -1.7103205326360002e-05 0 -2.1496553241634927e-05 -2.0499471118429998e-05 0 -1.9043322999752484e-05 -1.7260112610095711e-05 0 -5.9150525609863848e-05 0.00013938446165752833 0 -6.7996415594511392e-05 0.00012285839586669497 0 -5.137932630047855e-05 0.00010988647335013827 0 -2.7598806989280849e-05 -2.7159600106868599e-05 0 -2.7114566613222086e-05 -2.4794566336626054e-05 0 -2.8967984976794868e-05 -2.7678444168876831e-05 0 -1.8388947412699708e-05 -2.7751867513919295e-05 0 -2.0012529906829639e-05 -2.6365329508273669e-05 0 -2.0170416620729779e-05 -3.0117501766957099e-05 0 -4.9859861173971819e-06 3.6952231919564623e-07 0 -3.2433519123388346e-06 8.8701582215640828e-07 0 -4.8822722658379726e-06 4.3189215684080167e-07 0 -3.9986551599472918e-05 4.226527807586598e-05 0 -2.7478872898823265e-05 2.7537196876383649e-05 0 -2.7026083202982503e-05 4.0516416116517291e-05 0 -7.3816279549817859e-06 -2.8144007911425096e-06 0 -1.1009803046998454e-05 -3.6138436695426194e-06 0 -6.701833974054048e-06 -1.8375835861755973e-06 0 -1.5915775131797147e-05 4.0669953637308492e-06 0 -1.0413333230832641e-05 3.1368303635462311e-06 0 -9.4698075686607423e-06 1.6701771196951456e-06 0 -1.3969661386021375e-05 -1.5291907599999113e-05 0 -1.1867208059444451e-05 -1.116121258757805e-05 0 -1.4906663623865047e-05 -1.0463692088691686e-05 0 -3.261663639902201e-06 4.2074424492196914e-07 0 -5.4108353383559597e-06 1.6076888493783189e-07 0 -3.1237886158743506e-06 6.5586638287241383e-07 0 -3.7129054648122783e-06 -9.8174833088250017e-07 0 -2.9631696791769796e-06 -9.9527462563528063e-07 0 -5.9400605736335088e-06 -6.7027201994158173e-07 0 -7.3593135614267861e-05 4.8482432235426346e-05 0 -5.6219558900428554e-05 3.7545930913538516e-05 0 -5.9020752569769076e-05 5.1900783902379411e-05 0 -4.3414510531640111e-05 -2.5019486062433977e-05 0 -3.753225631511504e-05 -2.6534411712529954e-05 0 -3.5199823173898437e-05 -1.9839722618665691e-05 0 -1.4881446028093764e-05 2.5698208192624907e-05 0 -4.9178671175603064e-06 1.927541037215785e-05 0 -9.382729013746674e-06 3.4652383492369865e-05 0 3.2681125072363216e-06 2.168683363733187e-05 0 -9.382729013746674e-06 3.4652383492369865e-05 0 -4.9178671175603064e-06 1.927541037215785e-05 0 -2.1851976990039249e-05 -2.7452344999198891e-05 0 -2.8308278255604614e-05 -3.0409915892732536e-05 0 -2.5160469154772319e-05 -3.5876134291572769e-05 0 -3.0941975117198922e-05 -4.2339101861827298e-05 0 -2.5160469154772319e-05 -3.5876134291572769e-05 0 -2.8308278255604614e-05 -3.0409915892732536e-05 0 -1.1956759333467379e-05 -4.7272365556358557e-06 0 -8.6674036673902671e-06 3.2866089926522773e-07 0 -9.2957188355703391e-06 3.1045221672879198e-06 0 -2.1311857966843387e-05 -3.2396401367890556e-05 0 -2.4111494198257577e-05 -3.1966594556872409e-05 0 -2.1835654817552571e-05 -3.4316172821565071e-05 0 -1.5491625505423033e-06 6.5971648184065667e-07 0 -2.3801484858506425e-06 3.1483501106100626e-07 0 -1.6795148965657136e-06 -1.9618475803814411e-08 0 -2.3300215342138324e-05 -1.4099833112250272e-05 0 -3.0290611054904924e-05 -1.946488910379306e-05 0 -2.5501410508217278e-05 -1.8862664862513358e-05 0 -1.8429384309980428e-05 -3.7925628441313013e-05 0 -1.8664876822926849e-05 -3.5237738132083438e-05 0 -2.0119329507231533e-05 -3.5079270548620603e-05 0 -5.9417502310871504e-05 7.2151882902087047e-05 0 -7.291657928146495e-05 7.2562626939344976e-05 0 -5.9020752569769076e-05 5.1900783902379411e-05 0 -8.0259246023781634e-05 0.00020066766383361974 0 -5.9831814431548816e-05 0.00018145559138923488 0 -5.9512865496023451e-05 0.00020266819955442242 0 -2.2947825226951971e-05 -9.2808270466616182e-05 0 -2.9909519418367805e-05 -8.4406260455683569e-05 0 -3.1246943056124496e-05 -9.433779167236288e-05 0 -5.6289205105085455e-06 -1.0771705267587483e-08 0 -4.9999285243643842e-06 7.7254871647014206e-07 0 -4.1476401632933648e-06 8.3793990988540278e-07 0 -1.9933060071225877e-05 -1.1993794670308265e-05 0 -1.8751457327882155e-05 -1.0280604730717594e-05 0 -2.1582972958311863e-05 -1.3726099640419148e-05 0 -1.8812305194458182e-06 1.5665025417714941e-06 0 -2.2882457054780714e-06 2.4141615859031345e-06 0 -1.8744937884039739e-06 2.0707422656210147e-06 0 -2.1335101285594046e-06 3.1166472457055294e-06 0 -1.8744937884039739e-06 2.0707422656210147e-06 0 -2.2882457054780714e-06 2.4141615859031345e-06 0 -1.2326495887775382e-05 3.0688025741752676e-06 0 -1.7430796479038292e-05 5.2784860426092576e-06 0 -1.5263386073678448e-05 2.7070721344424551e-06 0 -3.0941975117198922e-05 -4.2339101861827298e-05 0 -3.7061650415599441e-05 -4.9055078035118613e-05 0 -3.3575304218484547e-05 -5.5264031537568955e-05 0 -1.7027221545430555e-05 2.5853663326778526e-06 0 -1.3254433611015019e-05 1.2678218767034567e-06 0 -2.0453415565563232e-05 3.9925643711041496e-06 0 -2.1785199395631688e-05 0.00013850736597795639 0 -4.1063489599576203e-05 0.0001605002640253149 0 -4.4217832679644271e-05 0.00014082659615077288 0 -2.1785199395631688e-05 0.00013850736597795639 0 -4.4217832679644271e-05 0.00014082659615077288 0 -3.9501251591869686e-05 0.00012036184407085718 0 -5.9150525609863848e-05 0.00013938446165752833 0 -3.9501251591869686e-05 0.00012036184407085718 0 -4.4217832679644271e-05 0.00014082659615077288 0 -4.1535229797612072e-05 -6.5034932926421595e-05 0 -3.6298097873529584e-05 -7.519552689879822e-05 0 -3.2184400188275376e-05 -6.4629279302904786e-05 0 -4.1535229797612072e-05 -6.5034932926421595e-05 0 -3.2184400188275376e-05 -6.4629279302904786e-05 0 -3.3575304218484547e-05 -5.5264031537568955e-05 0 -3.0537238570586237e-06 8.7802666753835128e-06 0 -2.11677478643288e-06 1.0334024682208937e-05 0 -1.2996744383741129e-06 1.431049881688155e-05 0 -9.5401840492407558e-10 -2.5427903543713302e-10 0 -6.7448063987896051e-10 2.6604313228504827e-11 0 -6.9356066808351455e-07 -1.9761008062839141e-07 0 -8.6515549573650779e-10 2.2141116895057367e-10 0 -1.0874334375874259e-09 2.9852351544601564e-10 0 -9.3913206279648804e-07 6.0970511588113617e-07 0 -4.4614592531279679e-06 5.542128056847896e-07 0 -4.1476401632933648e-06 8.3793990988540268e-07 0 -2.9597414773286058e-06 1.1135259825876882e-06 0 -1.285077318921571e-05 -1.3479383149443226e-05 0 -1.3130966269144199e-05 -1.1303371894595152e-05 0 -1.5644531599370831e-05 -1.6352278020947249e-05 0 -1.3254433611015019e-05 1.2678218767034567e-06 0 -1.5263386073678445e-05 2.7070721344424551e-06 0 -2.0453415565563232e-05 3.9925643711041496e-06 0 -6.8270008825727367e-10 1.6667605118970926e-10 0 -8.2049167320988777e-07 5.0945334261036972e-07 0 -5.2887501658529599e-07 1.9093353576687352e-07 0 -1.5915775131797147e-05 4.0669953637308492e-06 0 -1.3154311128226338e-05 1.8659779688421457e-06 0 -1.8340972851999911e-05 3.6138452557684939e-06 0 -1.1009803046998454e-05 -3.6138436695426194e-06 0 -1.2590747614033094e-05 -3.3353708736572272e-06 0 -9.2937672789428052e-06 -2.1168326145411437e-06 0 -3.8539826911515666e-05 -3.4775443057251394e-05 0 -3.753225631511504e-05 -2.6534411712529954e-05 0 -4.4468437446715727e-05 -3.535094907068114e-05 0 -1.4623404850696998e-06 8.8493032398974876e-07 0 -1.1547365935599491e-06 7.3585572727362905e-07 0 -2.0848824564342734e-06 1.049630440341562e-06 0 -2.4404744391486222e-05 -2.3366229733077498e-05 0 -2.7114566613222086e-05 -2.4794566336626054e-05 0 -2.5653621991207701e-05 -2.5702913030657371e-05 0 -6.0577609190539662e-06 3.0061625776603602e-06 0 -4.0625022452676921e-06 3.3245190469381961e-06 0 -5.6518113128764057e-06 1.8679143626490603e-06 0 -1.3038380441051688e-05 0.00010098160437694415 0 -3.2112448358249569e-05 0.00010254865397003299 0 -2.5403692060154247e-05 8.0215949793710522e-05 0 -1.5491625505423033e-06 6.5971648184065667e-07 0 -1.1765581988060008e-06 4.1011023294145426e-08 0 -1.1423813771525144e-06 4.5661719223614601e-07 0 -6.7884239693903725e-05 0.000224771207645803 0 -5.9512865496023451e-05 0.00020266819955442242 0 -4.4728495349487139e-05 0.00021441284005231873 0 -2.883136957598638e-05 -0.00010510781346902091 0 -3.1246943056124496e-05 -9.433779167236288e-05 0 -3.7668075552910119e-05 -9.9981725923934845e-05 0 -1.1547365935599491e-06 7.3585572727362905e-07 0 -1.9839772627477013e-06 9.6241492151304522e-07 0 -2.0848824564342734e-06 1.049630440341562e-06 0 -6.0577609190539662e-06 3.0061625776603602e-06 0 -7.6907000049377963e-06 6.0065048974437933e-07 0 -9.0703134094631102e-06 1.1127742202890979e-06 0 -2.5206546865014236e-05 0.00022464659813037634 0 -2.8827442326538543e-05 0.00024706129655074715 0 -4.6381350376078318e-05 0.00023965007978411231 0 -6.7884239693903725e-05 0.000224771207645803 0 -4.6381350376078318e-05 0.00023965007978411231 0 -6.4645578325811694e-05 0.00024663957913490295 0 -4.6461464432454871e-05 -0.00010452824232926382 0 -4.5111361053912302e-05 -0.00011458785925884961 0 -3.7480120981477332e-05 -0.00011164759892837972 0 -2.883136957598638e-05 -0.00010510781346902091 0 -3.7480120981477332e-05 -0.00011164759892837972 0 -3.0372095744787044e-05 -0.00011514193771742945 0 -2.2791610264514238e-05 1.549659596165125e-05 0 -3.4643136530934751e-05 2.5793576150144383e-05 0 -3.3680021788928588e-05 1.8549895778525607e-05 0 -2.9287808919931421e-05 -2.2974606348408394e-05 0 -3.753225631511504e-05 -2.6534411712529954e-05 0 -3.3247222501027181e-05 -2.9559452663223741e-05 0 -3.8539826911515666e-05 -3.4775443057251394e-05 0 -3.3247222501027181e-05 -2.9559452663223741e-05 0 -3.753225631511504e-05 -2.6534411712529954e-05 0 -5.9417502310871504e-05 7.2151882902087047e-05 0 -5.9020752569769076e-05 5.1900783902379411e-05 0 -4.7913071026655694e-05 5.9606251525530911e-05 0 -3.9986551599472918e-05 4.226527807586598e-05 0 -4.7913071026655694e-05 5.9606251525530911e-05 0 -5.9020752569769076e-05 5.1900783902379411e-05 0 -1.8495828162026691e-06 8.6219779241276669e-07 0 -2.4018947276826618e-06 8.3115329928637409e-07 0 -3.2433519123388346e-06 8.8701582215640828e-07 0 1.230443591736225e-05 5.4277197526497921e-05 0 1.5433090433371647e-05 7.812957780528548e-05 0 -5.2593151462466995e-06 5.5989566914545766e-05 0 -3.7129054648122783e-06 -9.8174833088250017e-07 0 -5.9193458443970231e-06 -7.3112063854108781e-07 0 -3.9108426098832713e-06 -6.8273796660265009e-07 0 -3.261663639902201e-06 4.2074424492196914e-07 0 -3.0597754190338299e-06 9.0265616550224561e-08 0 -4.808846121742894e-06 3.4024260131019511e-08 0 -1.6127441757551268e-05 -7.4997013110169726e-06 0 -1.5243129047631886e-05 -5.720166207313967e-06 0 -1.3353085629894455e-05 -4.0004626862367224e-06 0 -5.4108353383559597e-06 1.6076888493783189e-07 0 -4.8603648788312052e-06 3.919426675959441e-07 0 -3.1237886158743506e-06 6.5586638287241383e-07 0 -5.9400605736335088e-06 -6.7027201994158173e-07 0 -2.96316967917698e-06 -9.9527462563528063e-07 0 -4.5684492869242523e-06 -4.9046113059724201e-07 0 -1.9772718734904441e-05 4.7759473375249431e-06 0 -2.5549319732935517e-05 7.7723908578991666e-06 0 -2.0453415565563232e-05 3.9925643711041496e-06 0 -2.8097353898599017e-05 7.2610580596321367e-06 0 -2.0453415565563232e-05 3.9925643711041496e-06 0 -2.5549319732935517e-05 7.7723908578991666e-06 0 -2.5206546865014236e-05 0.00022464659813037634 0 -2.9055210632579191e-05 0.00019833920549396197 0 -1.0384525968268169e-05 0.00020106024856282468 0 -4.6461464432454871e-05 -0.00010452824232926382 0 -4.3763495801631759e-05 -9.2605703666457092e-05 0 -5.2347254280219851e-05 -9.4367712028898962e-05 0 -1.8429384309980428e-05 -3.7925628441313013e-05 0 -1.7290557276695505e-05 -3.8472020386465499e-05 0 -1.7359745542739111e-05 -3.7217883330322001e-05 0 -2.6570972274483361e-05 -3.4323838469709038e-05 0 -2.322485893047274e-05 -3.5372255869989611e-05 0 -2.6827597653749321e-05 -3.1883159674053872e-05 0 -1.0240812248103038e-05 -2.3601571517107703e-06 0 -8.1821016653987496e-06 -1.199682210781023e-06 0 -8.4437514101286669e-06 -9.5740917157875607e-07 0 -3.0498025373753664e-05 -3.0266183538867194e-05 0 -2.9501981395377115e-05 -2.9254955680610411e-05 0 -2.8967984976794868e-05 -2.7678444168876831e-05 0 -1.0396634366154978e-05 -2.447322139456469e-05 0 -1.1863786085238701e-05 -2.5285298690699875e-05 0 -1.4119121363157854e-05 -3.0282169272870127e-05 0 -1.7935277509013277e-05 -3.0941804842887487e-05 0 -1.6195763892312907e-05 -3.1102812195417815e-05 0 -1.6056391009937346e-05 -2.7037792571179279e-05 0 -2.8797505844105724e-05 -1.518384851911734e-05 0 -3.0290611054904924e-05 -1.946488910379306e-05 0 -2.3300215342138324e-05 -1.4099833112250272e-05 0 -2.322485893047274e-05 -3.5372255869989611e-05 0 -2.1835654817552571e-05 -3.4316172821565071e-05 0 -2.4111494198257573e-05 -3.1966594556872409e-05 0 -3.350784172345888e-05 1.357665562631276e-05 0 -2.5549319732935517e-05 7.7723908578991666e-06 0 -2.7045445240424295e-05 1.2262080343414986e-05 0 -4.9999285243643842e-06 7.7254871647014206e-07 0 -3.7087511280650789e-06 1.4344237917693888e-06 0 -4.1476401632933648e-06 8.3793990988540278e-07 0 -2.9287808919931421e-05 -2.2974606348408394e-05 0 -2.8308278255604614e-05 -3.0409915892732536e-05 0 -2.4302165500549041e-05 -2.2528463059824658e-05 0 -2.1851976990039249e-05 -2.7452344999198891e-05 0 -2.4302165500549041e-05 -2.2528463059824658e-05 0 -2.8308278255604614e-05 -3.0409915892732536e-05 0 -1.1189664029117907e-05 -2.3851038404121211e-06 0 -1.0240812248103038e-05 -2.3601571517107703e-06 0 -8.4437514101286669e-06 -9.5740917157875607e-07 0 -2.9287808919931421e-05 -2.2974606348408394e-05 0 -2.5501410508217278e-05 -1.8862664862513358e-05 0 -3.0290611054904924e-05 -1.946488910379306e-05 0 -9.6775173608029961e-06 -1.3833008876146313e-06 0 -1.1189664029117907e-05 -2.3851038404121211e-06 0 -8.4437514101286669e-06 -9.5740917157875607e-07 0 -5.7514405193731576e-06 1.1457970968484682e-07 0 -4.9345759837152176e-06 1.4236318524619124e-06 0 -8.1193443846699967e-06 1.3361470054334847e-06 0 -2.9287808919931421e-05 -2.2974606348408394e-05 0 -3.0290611054904924e-05 -1.946488910379306e-05 0 -3.753225631511504e-05 -2.6534411712529954e-05 0 -3.9986551599472918e-05 4.226527807586598e-05 0 -5.9020752569769076e-05 5.1900783902379411e-05 0 -4.6360379391225043e-05 3.6288623476893867e-05 0 -2.5436956702683206e-09 -7.4855390744809168e-10 0 -1.8450654870363875e-06 -6.6090998636519519e-07 0 -3.9108426098832713e-06 -6.8273796660265009e-07 0 -2.0050084694947964e-09 3.5144339290911763e-10 0 -3.0597754190338299e-06 9.0265616550224561e-08 0 -1.5446384263139467e-06 2.7436408920890118e-07 0 -9.6775173608029961e-06 -1.3833008876146313e-06 0 -8.4437514101286669e-06 -9.5740917157875607e-07 0 -7.7169917680775922e-06 -5.6659597876993858e-07 0 -1.0899227514869317e-05 1.4180813477562956e-06 0 -8.8079171471939405e-06 1.3826761541225068e-07 0 -8.1193443846699967e-06 1.3361470054334847e-06 0 -3.1898963176227749e-06 -6.8652023655526519e-07 0 -2.0780851491446837e-06 -6.5772151056638432e-07 0 -3.3243163075145501e-06 -1.7417353438184006e-07 0 -1.5644531599370831e-05 -1.6352278020947249e-05 0 -1.9976902927420406e-05 -1.9750885609836197e-05 0 -1.6197173309726631e-05 -2.4108477435830969e-05 0 -1.5491625505423033e-06 6.5971648184065667e-07 0 -1.3995990455283554e-06 8.923621152510446e-07 0 -1.6190362015235964e-06 1.2490654812391418e-06 0 -6.7884239693903725e-05 0.000224771207645803 0 -8.0259246023781634e-05 0.00020066766383361974 0 -5.9512865496023451e-05 0.00020266819955442242 0 -2.883136957598638e-05 -0.00010510781346902091 0 -2.2947825226951971e-05 -9.2808270466616182e-05 0 -3.1246943056124496e-05 -9.433779167236288e-05 0 -6.3292698982267554e-06 -4.3433285485521063e-08 0 -5.4108353383559597e-06 1.6076888493783189e-07 0 -7.7169917680775922e-06 -5.6659597876993858e-07 0 -5.7514405193731576e-06 1.1457970968484682e-07 0 -8.8079171471939405e-06 1.3826761541225068e-07 0 -5.9400605736335088e-06 -6.7027201994158173e-07 0 -1.2855378040543077e-06 8.2410050484375091e-07 0 -2.02149011740137e-06 1.1427135168273007e-06 0 -1.7309706519527788e-06 1.181995612483046e-06 0 -1.9976902927420406e-05 -1.9750885609836197e-05 0 -2.1851976990039249e-05 -2.7452344999198891e-05 0 -1.6197173309726631e-05 -2.4108477435830969e-05 0 -0.00010525510458999484 0.00015310151272610601 0 -0.00010184253522809823 0.00012954012907123808 0 -8.1538111355291786e-05 0.00014022776079521349 0 -7.9972325332116867e-06 -5.583524083067792e-05 0 -1.765188128859738e-05 -6.2902186272360982e-05 0 -8.6559131000871615e-06 -6.6816691220006978e-05 0 -4.1535229797612072e-05 -6.5034932926421595e-05 0 -3.357530421848454e-05 -5.5264031537568955e-05 0 -4.0468021735158167e-05 -5.5786012500030373e-05 0 -1.0400928974848005e-05 -2.008888790910168e-06 0 -1.292475931388321e-05 -5.5299175500263746e-06 0 -1.3353085629894455e-05 -4.0004626862367224e-06 0 -1.7027221545430555e-05 2.5853663326778526e-06 0 -1.3154311128226337e-05 1.8659779688421455e-06 0 -1.2427807859606588e-05 1.0613417399698868e-06 0 -1.2079532446876469e-05 -2.5780370339982085e-06 0 -9.1489070615522687e-06 -1.5303324833807673e-06 0 -9.2937672789428052e-06 -2.1168326145411437e-06 0 -4.1074975438410234e-06 5.5159503737842243e-06 0 -4.2748490747015441e-06 3.0475394482375771e-06 0 -2.6113725350185484e-06 3.7502395293619743e-06 0 -1.2855378040543077e-06 8.2410050484375091e-07 0 -1.4623404850696998e-06 8.8493032398974876e-07 0 -2.02149011740137e-06 1.1427135168273007e-06 0 -1.9933060071225877e-05 -1.1993794670308265e-05 0 -2.2465004016667054e-05 -1.5820374431982887e-05 0 -2.0149024884628876e-05 -1.3619591462880969e-05 0 -1.7027221545430555e-05 2.5853663326778526e-06 0 -1.8340972851999911e-05 3.6138452557684939e-06 0 -1.3154311128226338e-05 1.8659779688421457e-06 0 -1.2079532446876469e-05 -2.5780370339982085e-06 0 -9.2937672789428052e-06 -2.1168326145411437e-06 0 -1.2590747614033096e-05 -3.3353708736572277e-06 0 -6.0577609190539662e-06 3.0061625776603602e-06 0 -5.6518113128764057e-06 1.8679143626490603e-06 0 -7.6907000049377963e-06 6.0065048974437933e-07 0 -3.6459936879649352e-05 -8.7960663850211664e-05 0 -3.6298097873529577e-05 -7.5195526898798207e-05 0 -4.1586993542147654e-05 -8.2138463452962644e-05 0 -4.4921251493845713e-05 0.00018884203313728531 0 -4.1063489599576203e-05 0.0001605002640253149 0 -3.1106249581194047e-05 0.00017562274155836084 0 -2.8797505844105724e-05 -1.518384851911734e-05 0 -2.3300215342138324e-05 -1.4099833112250272e-05 0 -2.335236109899206e-05 -1.0909319767357528e-05 0 -1.880739972808636e-05 -9.5403089327931063e-06 0 -2.335236109899206e-05 -1.0909319767357528e-05 0 -2.3300215342138324e-05 -1.4099833112250272e-05 0 -9.7184412855812532e-06 -4.358526886077131e-06 0 -1.1619990370203662e-05 -6.0319122872493716e-06 0 -1.1357229391525081e-05 -7.4699752667408492e-06 0 -1.3757245470638849e-05 -9.3216894949319347e-06 0 -1.1357229391525081e-05 -7.4699752667408492e-06 0 -1.1619990370203662e-05 -6.0319122872493716e-06 0 -1.3592818427805185e-06 -7.5972757330505126e-07 0 -2.0780851491446837e-06 -6.5772151056638432e-07 0 -2.96316967917698e-06 -9.9527462563528063e-07 0 -3.1898963176227749e-06 -6.8652023655526519e-07 0 -2.96316967917698e-06 -9.9527462563528063e-07 0 -2.0780851491446837e-06 -6.5772151056638432e-07 0 -3.7236185078042613e-06 6.7798894697113496e-07 0 -2.4018947276826618e-06 8.3115329928637409e-07 0 -3.1237886158743506e-06 6.5586638287241383e-07 0 -1.4264393287645342e-06 5.9122271196927988e-07 0 -3.1237886158743506e-06 6.5586638287241383e-07 0 -2.4018947276826618e-06 8.3115329928637409e-07 0 -2.4404744391486222e-05 -2.3366229733077498e-05 0 -2.3866030306057768e-05 -2.6039416153310586e-05 0 -2.2153501986130834e-05 -2.3647911074059971e-05 0 -1.0400928974848005e-05 -2.008888790910168e-06 0 -9.0703134094631102e-06 1.1127742202890979e-06 0 -7.6907000049377963e-06 6.0065048974437933e-07 0 -2.1335101285594046e-06 3.1166472457055294e-06 0 -2.2507091522850322e-06 2.6171381776761527e-06 0 -1.8744937884039739e-06 2.0707422656210147e-06 0 -2.1785199395631688e-05 0.00013850736597795639 0 -2.3105754940584693e-05 0.00016101547232880059 0 -4.1063489599576203e-05 0.0001605002640253149 0 -4.1535229797612072e-05 -6.5034932926421595e-05 0 -4.3900139652094932e-05 -7.5021804129329745e-05 0 -3.6298097873529584e-05 -7.519552689879822e-05 0 -2.1785199395631688e-05 0.00013850736597795639 0 -3.9501251591869686e-05 0.00012036184407085718 0 -2.2490418381781392e-05 0.00011677963717816151 0 -4.1074975438410234e-06 5.5159503737842243e-06 0 -6.6885815631120327e-06 4.7192042403413015e-06 0 -4.2748490747015441e-06 3.0475394482375771e-06 0 -4.1074975438410234e-06 5.5159503737842243e-06 0 -6.3651090410637946e-06 8.43592246288315e-06 0 -6.6885815631120327e-06 4.7192042403413015e-06 0 -4.1072237796062364e-05 8.5984409971016359e-05 0 -3.2112448358249569e-05 0.00010254865397003299 0 -5.137932630047855e-05 0.00010988647335013827 0 -3.9501251591869686e-05 0.00012036184407085718 0 -5.137932630047855e-05 0.00010988647335013827 0 -3.2112448358249569e-05 0.00010254865397003299 0 -6.3544919496627883e-06 1.867090114165371e-07 0 -3.9108426098832713e-06 -6.8273796660265009e-07 0 -6.9978035830809146e-06 -3.1627754714096155e-07 0 -4.6500984060988937e-06 -6.8802550863658212e-07 0 -5.3499906156408719e-06 -3.6719724394596143e-07 0 -3.0597754190338299e-06 9.0265616550224561e-08 0 -2.1851976990039249e-05 -2.7452344999198891e-05 0 -2.5160469154772319e-05 -3.5876134291572769e-05 0 -1.8602313630619555e-05 -3.567400373932116e-05 0 -3.0498025373753664e-05 -3.0266183538867194e-05 0 -3.1187662172352444e-05 -3.2172175123954695e-05 0 -2.9501981395377115e-05 -2.9254955680610411e-05 0 -1.0396634366154978e-05 -2.447322139456469e-05 0 -1.4119121363157854e-05 -3.0282169272870127e-05 0 -1.1866758537985941e-05 -2.8083720241952178e-05 0 -6.3415397730147311e-06 4.0681407128064316e-07 0 -7.6907000049377963e-06 6.0065048974437933e-07 0 -5.6518113128764057e-06 1.8679143626490603e-06 0 -2.1335101285594046e-06 3.1166472457055294e-06 0 -2.3565984197553165e-06 4.9989147815034042e-06 0 -2.6113725350185484e-06 3.7502395293619743e-06 0 -2.1311857966843387e-05 -3.2396401367890556e-05 0 -2.0170416620729779e-05 -3.0117501766957099e-05 0 -2.3174762805228168e-05 -2.986683664590954e-05 0 -2.1673508351880509e-05 -2.8166387393254036e-05 0 -2.3174762805228168e-05 -2.986683664590954e-05 0 -2.0170416620729779e-05 -3.0117501766957099e-05 0 -1.7651794964192227e-05 -1.8961122389349232e-05 0 -1.7715995296107747e-05 -2.3506330469270823e-05 0 -1.4526775679369517e-05 -1.916422836864789e-05 0 -6.7884239693903725e-05 0.000224771207645803 0 -8.8726298234932942e-05 0.00022237281462873199 0 -8.0259246023781634e-05 0.00020066766383361974 0 -2.883136957598638e-05 -0.00010510781346902091 0 -2.0861815479255902e-05 -0.00010315940156363765 0 -2.2947825226951971e-05 -9.2808270466616182e-05 0 -2.861585209373045e-05 -3.009578011970482e-05 0 -3.0444927714776241e-05 -3.1742339185856514e-05 0 -2.6827597653749321e-05 -3.1883159674053872e-05 0 -1.6193383252419908e-05 -3.4419885780519981e-05 0 -1.7359745542739111e-05 -3.7217883330322001e-05 0 -1.5857763462026232e-05 -3.6241737867661395e-05 0 -2.5206546865014236e-05 0.00022464659813037634 0 -4.4728495349487139e-05 0.00021441284005231873 0 -2.9055210632579191e-05 0.00019833920549396197 0 -4.6461464432454871e-05 -0.00010452824232926382 0 -3.7668075552910119e-05 -9.9981725923934845e-05 0 -4.3763495801631759e-05 -9.2605703666457092e-05 0 -1.2855378040543077e-06 8.2410050484375091e-07 0 -1.7309706519527788e-06 1.181995612483046e-06 0 -1.3995990455283554e-06 8.923621152510445e-07 0 -1.8812305194458182e-06 1.5665025417714941e-06 0 -1.3995990455283554e-06 8.923621152510445e-07 0 -1.7309706519527788e-06 1.181995612483046e-06 0 -1.4983487750204575e-05 0.00017573461555138082 0 -2.9055210632579191e-05 0.00019833920549396197 0 -3.1106249581194047e-05 0.00017562274155836084 0 -4.8757666071637259e-05 -8.2628016108702353e-05 0 -4.3763495801631759e-05 -9.2605703666457092e-05 0 -4.1586993542147654e-05 -8.2138463452962644e-05 0 -3.7129054648122783e-06 -9.8174833088250017e-07 0 -3.9108426098832722e-06 -6.8273796660264998e-07 0 -1.8450654870363875e-06 -6.6090998636519519e-07 0 -3.261663639902201e-06 4.2074424492196914e-07 0 -1.5446384263139467e-06 2.7436408920890118e-07 0 -3.0597754190338299e-06 9.0265616550224561e-08 0 -2.0031087864088508e-05 5.4798304887021262e-05 0 -9.025040486446309e-06 7.6584984194744715e-05 0 -2.5403692060154247e-05 8.0215949793710522e-05 0 -6.3544919496627883e-06 1.867090114165371e-07 0 -3.0617246886309528e-06 -2.1913259193455515e-07 0 -3.9108426098832713e-06 -6.8273796660265009e-07 0 -4.6500984060988937e-06 -6.8802550863658212e-07 0 -3.0597754190338299e-06 9.0265616550224561e-08 0 -2.26368639245721e-06 -1.6994998806046793e-07 0 -0.00010843089082689348 0.00020012982884388904 0 -9.1344303973256761e-05 0.00018344000009362681 0 -8.0259246023781634e-05 0.00020066766383361974 0 -1.1145511014286878e-05 -8.9797109963366017e-05 0 -1.7130390196908561e-05 -8.3348124944223589e-05 0 -2.2947825226951971e-05 -9.2808270466616182e-05 0 -1.4881446028093764e-05 2.5698208192624907e-05 0 -2.7478872898823265e-05 2.7537196876383649e-05 0 -1.7215083532174122e-05 1.8927147354072019e-05 0 -2.2791610264514238e-05 1.549659596165125e-05 0 -1.7215083532174122e-05 1.8927147354072022e-05 0 -2.7478872898823265e-05 2.7537196876383649e-05 0 -3.0941975117198922e-05 -4.2339101861827298e-05 0 -2.8308278255604614e-05 -3.0409915892732536e-05 0 -3.3739370610848749e-05 -3.5517950294833505e-05 0 -1.1956759333467379e-05 -4.7272365556358557e-06 0 -1.1867208059444451e-05 -1.116121258757805e-05 0 -8.9792546313709725e-06 -7.3230220730504814e-06 0 -4.1072237796062364e-05 8.5984409971016359e-05 0 -4.8346038463334928e-05 7.3426724988558727e-05 0 -3.6508101737453975e-05 6.1834132473056509e-05 0 -3.9986551599472918e-05 4.226527807586598e-05 0 -3.6508101737453975e-05 6.1834132473056509e-05 0 -4.7913071026655694e-05 5.9606251525530911e-05 0 -2.9287808919931421e-05 -2.2974606348408394e-05 0 -3.3247222501027181e-05 -2.9559452663223741e-05 0 -2.8308278255604614e-05 -3.0409915892732536e-05 0 -2.1851976990039249e-05 -2.7452344999198891e-05 0 -1.8602313630619555e-05 -3.567400373932116e-05 0 -1.6197173309726631e-05 -2.4108477435830969e-05 0 -2.7598806989280849e-05 -2.7159600106868599e-05 0 -2.8967984976794868e-05 -2.7678444168876831e-05 0 -2.9501981395377115e-05 -2.9254955680610411e-05 0 -1.4517904291844009e-05 -2.8033129439983174e-05 0 -1.4119121363157854e-05 -3.0282169272870127e-05 0 -1.1863786085238701e-05 -2.5285298690699875e-05 0 -1.2097577663331159e-05 -1.442991074537312e-06 0 -1.5243129047631886e-05 -5.720166207313967e-06 0 -1.347401233319219e-05 -3.3889348427228035e-06 0 -1.6127441757551268e-05 -7.4997013110169726e-06 0 -1.7943155099765802e-05 -9.2650897453406182e-06 0 -1.5243129047631886e-05 -5.720166207313967e-06 0 -4.6252653982177023e-06 6.9891660239855881e-06 0 -4.2996598814997064e-06 5.126721956288286e-06 0 -6.9436973232015462e-06 4.2750690878485772e-06 0 -1.5644531599370831e-05 -1.6352278020947249e-05 0 -1.3130966269144199e-05 -1.1303371894595152e-05 0 -1.6454667999320584e-05 -1.3518721127547049e-05 0 -2.5206546865014236e-05 0.00022464659813037634 0 -1.0384525968268165e-05 0.00020106024856282468 0 -5.5483532247039384e-06 0.00022172666285421159 0 -4.6461464432454871e-05 -0.00010452824232926382 0 -5.2347254280219851e-05 -9.4367712028898962e-05 0 -5.5593960710835261e-05 -0.00010386011967928509 0 -6.0577609190539662e-06 3.0061625776603602e-06 0 -6.9436973232015462e-06 4.2750690878485772e-06 0 -4.2996598814997064e-06 5.126721956288286e-06 0 -1.0983493509702442e-05 -1.8093272035271352e-05 0 -1.4526775679369517e-05 -1.916422836864789e-05 0 -1.2345584406428333e-05 -2.1133578726509497e-05 0 -2.1673508351880509e-05 -2.8166387393254036e-05 0 -2.0170416620729779e-05 -3.0117501766957099e-05 0 -2.0012529906829639e-05 -2.6365329508273669e-05 0 -3.047399653914376e-06 4.7236760255119653e-06 0 -4.0625022452676921e-06 3.3245190469381961e-06 0 -4.2996598814997064e-06 5.126721956288286e-06 0 -1.2951372603843702e-06 -3.4706144307197613e-07 0 -1.6795148965657136e-06 -1.9618475803814401e-08 0 -2.0780851491446837e-06 -6.5772151056638432e-07 0 -5.2686793834090771e-05 -4.1022506851984782e-05 0 -5.6442210466343842e-05 -5.0611341660701962e-05 0 -4.5898177766255295e-05 -4.3513532794192481e-05 0 -5.7514405193731576e-06 1.1457970968484682e-07 0 -4.5684492869242523e-06 -4.9046113059724201e-07 0 -3.3243163075145501e-06 -1.7417353438184006e-07 0 -1.8744937884039739e-06 2.0707422656210147e-06 0 -2.2507091522850322e-06 2.6171381776761527e-06 0 -1.94623380292212e-06 1.3509175910306757e-06 0 -6.0577609190539662e-06 3.0061625776603602e-06 0 -9.0703134094631102e-06 1.1127742202890979e-06 0 -6.9436973232015462e-06 4.2750690878485772e-06 0 -9.6857790886209291e-05 0.00010649154362643966 0 -9.0470406084199259e-05 8.496230759719357e-05 0 -7.4313829332637996e-05 9.1756058970725405e-05 0 -1.1547365935599491e-06 7.3585572727362905e-07 0 -8.2049167320988777e-07 5.0945334261036972e-07 0 -4.6669331403821178e-07 3.2800131246456122e-07 0 -2.983886925705073e-06 1.681270273761594e-06 0 -2.6113725350185484e-06 3.7502395293619743e-06 0 -4.2748490747015441e-06 3.0475394482375771e-06 0 -2.0981606228789066e-05 -1.7103205326360002e-05 0 -2.2388498901084795e-05 -1.7181327826012203e-05 0 -2.3182832777021912e-05 -2.0234035657126729e-05 0 -4.1535229797612072e-05 -6.5034932926421595e-05 0 -4.8609250791374831e-05 -6.0292522469270381e-05 0 -5.1280974999711999e-05 -7.1794966386443156e-05 0 -5.7514405193731576e-06 1.1457970968484682e-07 0 -3.3243163075145501e-06 -1.7417353438184006e-07 0 -3.8650970467031222e-06 5.9529287626378462e-07 0 -1.2855378040543077e-06 8.2410050484375091e-07 0 -9.2378640819357274e-07 4.2413365080499066e-07 0 -8.2049167320988777e-07 5.0945334261036972e-07 0 -6.4603169075566e-06 2.6331953012858895e-06 0 -4.2748490747015441e-06 3.0475394482375771e-06 0 -6.6885815631120327e-06 4.7192042403413015e-06 0 -2.2465004016667054e-05 -1.5820374431982887e-05 0 -2.2388498901084795e-05 -1.7181327826012203e-05 0 -2.0149024884628876e-05 -1.3619591462880969e-05 0 -2.7598806989280849e-05 -2.7159600106868599e-05 0 -2.722224142367264e-05 -2.8376111655735199e-05 0 -2.5653621991207701e-05 -2.5702913030657371e-05 0 -1.9772718734904441e-05 4.7759473375249431e-06 0 -1.5263386073678448e-05 2.7070721344424551e-06 0 -1.7430796479038292e-05 5.2784860426092576e-06 0 1.5198392613792652e-05 0.00019446816117292946 0 -1.0384525968268169e-05 0.00020106024856282468 0 7.0227941648067226e-07 0.00018235638854557633 0 -6.411905112503094e-05 -9.3505156683673557e-05 0 -5.2347254280219851e-05 -9.4367712028898962e-05 0 -5.643553303533037e-05 -8.6549135449899263e-05 0 -1.6190362015235964e-06 1.2490654812391418e-06 0 -1.94623380292212e-06 1.3509175910306757e-06 0 -1.5491625505423033e-06 6.5971648184065667e-07 0 -1.8744937884039739e-06 2.0707422656210147e-06 0 -1.94623380292212e-06 1.3509175910306757e-06 0 -1.6190362015235964e-06 1.2490654812391418e-06 0 -7.513770973399542e-05 0.0001745739934953161 0 -8.0259246023781634e-05 0.00020066766383361977 0 -9.1344303973256761e-05 0.00018344000009362681 0 -2.3198071885223235e-05 -8.0069385572161528e-05 0 -2.2947825226951974e-05 -9.2808270466616195e-05 0 -1.7130390196908561e-05 -8.3348124944223589e-05 0 -1.8812305194458182e-06 1.5665025417714941e-06 0 -2.7980593535283247e-06 1.781583851126469e-06 0 -2.2882457054780714e-06 2.4141615859031345e-06 0 -3.3481239847589673e-06 2.321287395813132e-06 0 -2.2882457054780714e-06 2.4141615859031345e-06 0 -2.7980593535283247e-06 1.781583851126469e-06 0 -1.8812305194458182e-06 1.5665025417714941e-06 0 -1.6190362015235964e-06 1.2490654812391418e-06 0 -1.3995990455283554e-06 8.923621152510445e-07 0 -1.2079532446876469e-05 -2.5780370339982085e-06 0 -1.2257879907365326e-05 -2.4561198005964949e-06 0 -9.4199194860427328e-06 -1.3183076723997621e-06 0 -1.1871226502906939e-05 -4.4954766819076212e-06 0 -1.4645677204044023e-05 -7.6685320316309161e-06 0 -1.1619990370203662e-05 -6.0319122872493716e-06 0 -1.3757245470638849e-05 -9.3216894949319347e-06 0 -1.1619990370203662e-05 -6.0319122872493716e-06 0 -1.4645677204044023e-05 -7.6685320316309161e-06 0 -1.2079532446876469e-05 -2.5780370339982085e-06 0 -9.4199194860427328e-06 -1.3183076723997621e-06 0 -9.1489070615522687e-06 -1.5303324833807673e-06 0 -2.0031087864088508e-05 5.4798304887021262e-05 0 -5.2593151462466995e-06 5.5989566914545766e-05 0 -9.025040486446309e-06 7.6584984194744715e-05 0 -4.4921251493845713e-05 0.00018884203313728531 0 -4.4728495349487139e-05 0.00021441284005231876 0 -5.9512865496023451e-05 0.00020266819955442242 0 -3.6459936879649352e-05 -8.7960663850211664e-05 0 -3.7668075552910119e-05 -9.9981725923934845e-05 0 -3.1246943056124496e-05 -9.433779167236288e-05 0 -5.6289205105085455e-06 -1.0771705267587483e-08 0 -4.4614592531279679e-06 5.5421280568478939e-07 0 -5.9893739414239951e-06 -3.1657827123580325e-07 0 -6.8270008825727367e-10 1.6667605118970926e-10 0 -4.6669331403821178e-07 3.2800131246456122e-07 0 -8.2049167320988777e-07 5.0945334261036972e-07 0 -4.1074975438410234e-06 5.5159503737842243e-06 0 -3.0537238570586237e-06 8.7802666753835128e-06 0 -6.3651090410637946e-06 8.43592246288315e-06 0 -1.5028609598029516e-05 -2.3484810089877809e-05 0 -1.4526775679369517e-05 -1.916422836864789e-05 0 -1.7715995296107747e-05 -2.3506330469270823e-05 0 -1.7651794964192227e-05 -1.8961122389349232e-05 0 -1.9043322999752484e-05 -1.7260112610095711e-05 0 -1.9719547302012655e-05 -2.0828778851545508e-05 0 -2.02149011740137e-06 1.1427135168273007e-06 0 -2.9597414773286058e-06 1.1135259825876882e-06 0 -2.3643064347664105e-06 1.345129161609205e-06 0 -3.8539826911515666e-05 -3.4775443057251394e-05 0 -4.5898177766255295e-05 -4.3513532794192481e-05 0 -3.7075514627254826e-05 -4.2385583453617446e-05 0 -4.3512408870231237e-05 -4.9970906982517388e-05 0 -3.7075514627254826e-05 -4.2385583453617446e-05 0 -4.5898177766255295e-05 -4.3513532794192481e-05 0 -6.5948598173918451e-10 -3.2742160197300459e-11 0 -6.8270008825730252e-10 1.6667605118971968e-10 0 -5.2887501658529599e-07 1.9093353576687352e-07 0 -6.620320103975833e-05 0.00010652786724209729 0 -7.4313829332637996e-05 9.1756058970725405e-05 0 -5.6647390561006951e-05 8.946603863865338e-05 0 -5.9417502310871504e-05 7.2151882902087047e-05 0 -5.6647390561006951e-05 8.946603863865338e-05 0 -7.4313829332637996e-05 9.1756058970725405e-05 0 -2.861585209373045e-05 -3.009578011970482e-05 0 -2.722224142367264e-05 -2.8376111655735199e-05 0 -2.9501981395377115e-05 -2.9254955680610411e-05 0 -1.6193383252419908e-05 -3.4419885780519981e-05 0 -1.4119121363157854e-05 -3.0282169272870127e-05 0 -1.6195763892312907e-05 -3.1102812195417815e-05 0 -1.0449341071053839e-05 7.0557582570913253e-06 0 -6.6885815631120327e-06 4.7192042403413015e-06 0 -6.3651090410637946e-06 8.43592246288315e-06 0 -2.508522363085942e-05 -2.8265480994410935e-05 0 -2.330908267695148e-05 -2.7799996971874881e-05 0 -2.3866030306057768e-05 -2.6039416153310586e-05 0 -2.4638317972202405e-06 1.171815019448771e-05 0 -2.3749606479540947e-06 1.4948089831226708e-05 0 -1.2996744383741129e-06 1.431049881688155e-05 0 -5.7514405193731576e-06 1.1457970968484682e-07 0 -3.8650970467031222e-06 5.9529287626378462e-07 0 -4.9345759837152176e-06 1.4236318524619124e-06 0 -2.2791610264514238e-05 1.549659596165125e-05 0 -1.2005188264108729e-05 1.2229850497844165e-05 0 -1.7215083532174122e-05 1.8927147354072019e-05 0 1.5433090433371647e-05 7.812957780528548e-05 0 2.2431015038721147e-06 9.3501067576063599e-05 0 -9.025040486446309e-06 7.6584984194744715e-05 0 -5.6289205105085455e-06 -1.0771705267587483e-08 0 -4.1476401632933648e-06 8.3793990988540268e-07 0 -4.4614592531279679e-06 5.542128056847896e-07 0 -4.4921251493845713e-05 0.00018884203313728531 0 -2.9055210632579191e-05 0.00019833920549396197 0 -4.4728495349487139e-05 0.00021441284005231873 0 -3.6459936879649352e-05 -8.7960663850211664e-05 0 -4.3763495801631759e-05 -9.2605703666457092e-05 0 -3.7668075552910119e-05 -9.9981725923934845e-05 0 -3.001318084967857e-06 9.950380265244399e-07 0 -3.9584608370659851e-06 7.0737604808354459e-07 0 -4.4614592531279679e-06 5.542128056847896e-07 0 -1.187096994210613e-05 -6.6871862067426491e-06 0 -1.4743145039319633e-05 -8.9447989733875429e-06 0 -1.292475931388321e-05 -5.5299175500263755e-06 0 -1.4983487750204575e-05 0.00017573461555138082 0 7.0227941648067226e-07 0.00018235638854557633 0 -1.0384525968268169e-05 0.00020106024856282468 0 -4.8757666071637259e-05 -8.2628016108702353e-05 0 -5.643553303533037e-05 -8.654913544989925e-05 0 -5.2347254280219851e-05 -9.4367712028898962e-05 0 -2.3365669586462137e-05 -8.0215900990672902e-06 0 -2.8079944311776882e-05 -1.067150463484762e-05 0 -2.3071762208298566e-05 -7.8776693390071556e-06 0 -4.4671170539234989e-05 1.6815577581071167e-05 0 -3.6281089860492766e-05 1.1448778346476135e-05 0 -3.4953241695818221e-05 1.1600821910733689e-05 0 -1.4881446028093764e-05 2.5698208192624907e-05 0 -1.77314822375486e-05 3.8013856069719809e-05 0 -2.7026083202982503e-05 4.0516416116517291e-05 0 -9.6775173608029961e-06 -1.3833008876146313e-06 0 -1.2359101986912872e-05 -2.6822440652553669e-06 0 -1.1189664029117907e-05 -2.3851038404121211e-06 0 -3.2375902857126912e-05 -3.5088569303380778e-05 0 -2.9977653103853247e-05 -3.3625068269071735e-05 0 -3.0444927714776241e-05 -3.1742339185856514e-05 0 -3.2375902857126912e-05 -3.5088569303380778e-05 0 -3.0444927714776241e-05 -3.1742339185856514e-05 0 -3.1921907411071143e-05 -3.3639159186006479e-05 0 -1.4760064223064667e-05 -3.4839397015952045e-05 0 -1.3532978737734303e-05 -3.1638427942369161e-05 0 -1.5857763462026232e-05 -3.6241737867661395e-05 0 -1.4760064223064667e-05 -3.4839397015952045e-05 0 -1.5857763462026232e-05 -3.6241737867661395e-05 0 -1.6396933949249098e-05 -3.8333065014024268e-05 0 -2.861585209373045e-05 -3.009578011970482e-05 0 -2.5934140619234741e-05 -2.9924798495788157e-05 0 -2.722224142367264e-05 -2.8376111655735199e-05 0 -1.6193383252419908e-05 -3.4419885780519981e-05 0 -1.6195763892312907e-05 -3.1102812195417815e-05 0 -1.7624973175024113e-05 -3.4051302868005736e-05 0 -7.0975489734186332e-06 -1.7244743062090651e-05 0 -1.0495621170491346e-05 -2.157571833982847e-05 0 -8.7238084456788989e-06 -2.0718859631009592e-05 0 -2.8444337056488125e-05 -2.4764339012035457e-05 0 -2.9575563677856626e-05 -2.7870377693867775e-05 0 -2.7114566613222086e-05 -2.4794566336626054e-05 0 2.0798934791710074e-06 1.7238542430807666e-06 0 -4.7600623812754638e-06 -3.6098173962039369e-06 0 -7.6104887902765506e-07 -5.6593640957471104e-06 0 -2.5206546865014236e-05 0.00022464659813037634 0 -1.0687317469991034e-05 0.00024201358871985405 0 -2.8827442326538543e-05 0.00024706129655074715 0 -6.7884239693903725e-05 0.000224771207645803 0 -6.4645578325811694e-05 0.00024663957913490295 0 -8.4705326352317603e-05 0.0002421550736439147 0 -4.6461464432454871e-05 -0.00010452824232926382 0 -5.3760849769828065e-05 -0.00011253218467604967 0 -4.5111361053912302e-05 -0.00011458785925884961 0 -2.883136957598638e-05 -0.00010510781346902091 0 -3.0372095744787044e-05 -0.00011514193771742945 0 -2.3165227864728513e-05 -0.00011295570625828878 0 -3.185860620221362e-06 1.260200762391429e-06 0 -2.3643064347664105e-06 1.345129161609205e-06 0 -2.9597414773286058e-06 1.1135259825876882e-06 0 -2.5206546865014236e-05 0.00022464659813037634 0 -5.5483532247039367e-06 0.00022172666285421159 0 -1.0687317469991032e-05 0.00024201358871985405 0 -4.6461464432454871e-05 -0.00010452824232926382 0 -5.5593960710835261e-05 -0.00010386011967928509 0 -5.3760849769828065e-05 -0.00011253218467604967 0 -1.2097577663331159e-05 -1.442991074537312e-06 0 -1.0206206057486695e-05 1.5276755370977812e-06 0 -9.0703134094631102e-06 1.1127742202890979e-06 0 -6.7884239693903725e-05 0.000224771207645803 0 -8.4705326352317603e-05 0.0002421550736439147 0 -8.8726298234932942e-05 0.00022237281462873199 0 -2.883136957598638e-05 -0.00010510781346902091 0 -2.3165227864728513e-05 -0.00011295570625828878 0 -2.0861815479255902e-05 -0.00010315940156363765 0 -2.0310676386157834e-05 -4.7567184477948102e-05 0 -1.3859755969960795e-05 -4.1156729083952733e-05 0 -1.8602313630619555e-05 -3.567400373932116e-05 0 -1.9933060071225877e-05 -1.1993794670308265e-05 0 -2.0149024884628876e-05 -1.3619591462880969e-05 0 -1.7943155099765802e-05 -9.2650897453406182e-06 0 -1.8185278594842718e-05 -1.1110838817343988e-05 0 -1.7943155099765802e-05 -9.2650897453406182e-06 0 -2.0149024884628876e-05 -1.3619591462880969e-05 0 -6.4603169075566e-06 2.6331953012858895e-06 0 -8.1193443846699967e-06 1.3361470054334847e-06 0 -4.9345759837152176e-06 1.4236318524619124e-06 0 -4.1072237796062364e-05 8.5984409971016359e-05 0 -2.5403692060154247e-05 8.0215949793710522e-05 0 -3.2112448358249569e-05 0.00010254865397003299 0 -5.6442210466343842e-05 -5.0611341660701962e-05 0 -5.0500926976377203e-05 -5.2684082854182614e-05 0 -4.5898177766255295e-05 -4.3513532794192481e-05 0 -5.4894944321826176e-06 1.2867549438096031e-05 0 -1.2005188264108729e-05 1.2229850497844163e-05 0 -6.3651090410637946e-06 8.43592246288315e-06 0 -1.0449341071053839e-05 7.0557582570913253e-06 0 -6.3651090410637946e-06 8.43592246288315e-06 0 -1.2005188264108729e-05 1.2229850497844163e-05 0 -2.1335101285594046e-06 3.1166472457055294e-06 0 -2.5773485038576939e-06 3.5277730664537224e-06 0 -2.3565984197553165e-06 4.9989147815034042e-06 0 -2.005569431163041e-05 -2.3747576712621945e-05 0 -2.0012529906829639e-05 -2.6365329508273669e-05 0 -1.7715995296107747e-05 -2.3506330469270823e-05 0 -1.8388947412699708e-05 -2.7751867513919295e-05 0 -1.7715995296107747e-05 -2.3506330469270823e-05 0 -2.0012529906829639e-05 -2.6365329508273669e-05 0 -7.3593135614267861e-05 4.8482432235426346e-05 0 -6.392163821726708e-05 3.4749766554570615e-05 0 -5.6219558900428554e-05 3.7545930913538516e-05 0 -3.8290308976915838e-05 -1.8964501838000422e-05 0 -4.3414510531640111e-05 -2.5019486062433977e-05 0 -3.5199823173898437e-05 -1.9839722618665691e-05 0 -1.2258025449713164e-09 -3.3210748729901505e-10 0 -9.5401840492407558e-10 -2.5427903543713302e-10 0 -8.7497855349194923e-07 -4.7123753924364463e-07 0 -1.0874334375874259e-09 2.9852351544601564e-10 0 -1.2798795062048375e-09 2.8671452281092786e-10 0 -1.0808914100742802e-06 5.8223503452344459e-07 0 -4.1074975438410234e-06 5.5159503737842243e-06 0 -2.611372535018548e-06 3.7502395293619747e-06 0 -2.6862234333971208e-06 5.8517535157322063e-06 0 -3.047399653914376e-06 4.7236760255119653e-06 0 -2.3565984197553165e-06 4.9989147815034042e-06 0 -2.5773485038576939e-06 3.5277730664537224e-06 0 -2.1335101285594046e-06 3.1166472457055294e-06 0 -2.6113725350185484e-06 3.7502395293619743e-06 0 -2.2507091522850322e-06 2.6171381776761527e-06 0 -8.9699490858581862e-06 -8.0957344904760445e-08 0 -1.2427807859606588e-05 1.0613417399698868e-06 0 -9.6885761484059593e-06 5.5190442942748433e-07 0 -7.0175659685562531e-06 -5.6537800409906205e-07 0 -7.0669534905511863e-06 -1.1099657383370249e-06 0 -9.1489070615522687e-06 -1.5303324833807673e-06 0 -1.3038380441051688e-05 0.00010098160437694415 0 -9.025040486446309e-06 7.6584984194744715e-05 0 2.2431015038721147e-06 9.3501067576063599e-05 0 -8.9699490858581862e-06 -8.0957344904760445e-08 0 -9.6885761484059576e-06 5.5190442942748412e-07 0 -6.9978035830809146e-06 -3.1627754714096155e-07 0 -7.0175659685562531e-06 -5.6537800409906205e-07 0 -5.3499906156408719e-06 -3.6719724394596143e-07 0 -7.0669534905511863e-06 -1.1099657383370249e-06 0 -2.4404744391486222e-05 -2.3366229733077498e-05 0 -2.5653621991207701e-05 -2.5702913030657371e-05 0 -2.3866030306057768e-05 -2.6039416153310586e-05 0 -2.0031087864088508e-05 5.4798304887021262e-05 0 -9.382729013746674e-06 3.4652383492369865e-05 0 -5.2593151462466995e-06 5.5989566914545766e-05 0 -2.983886925705073e-06 1.681270273761594e-06 0 -2.2507091522850322e-06 2.6171381776761527e-06 0 -2.6113725350185484e-06 3.7502395293619743e-06 0 -1.5028609598029516e-05 -2.3484810089877809e-05 0 -1.2345584406428333e-05 -2.1133578726509497e-05 0 -1.4526775679369517e-05 -1.916422836864789e-05 0 -2.2162225372794201e-09 -3.483723439512005e-10 0 -1.6472675072527958e-09 -4.9195395585037867e-10 0 -1.6412917965134175e-06 -8.0158034693614478e-07 0 -1.5525860679247575e-09 2.9815639651565508e-10 0 -1.888708880771933e-09 1.5162386919591046e-10 0 -1.5217760593597314e-06 4.5679522537417993e-07 0 -1.4901507806843921e-05 -4.6479026027690118e-06 0 -1.9055649904403941e-05 -6.0714130847332769e-06 0 -1.5431108840189071e-05 -4.1563929921601381e-06 0 -2.8804583653813621e-05 7.864726842484757e-06 0 -2.2011338362844254e-05 5.5677697174510387e-06 0 -2.2932905378162852e-05 4.9196000919727986e-06 0 -2.0482750474787029e-05 -1.6042381126358405e-05 0 -2.3300215342138324e-05 -1.4099833112250272e-05 0 -2.5501410508217278e-05 -1.8862664862513358e-05 0 -8.012405227658016e-06 -3.5187015894330659e-05 0 -1.3052944078959765e-05 -3.1428523110120933e-05 0 -1.3859755969960795e-05 -4.1156729083952726e-05 0 -1.0400928974848005e-05 -2.008888790910168e-06 0 -1.0600988075813958e-05 -3.9280472013062726e-06 0 -1.292475931388321e-05 -5.5299175500263755e-06 0 -4.6524243569033136e-06 1.6854282383311816e-06 0 -4.0625022452676921e-06 3.3245190469381961e-06 0 -3.3481239847589673e-06 2.321287395813132e-06 0 -5.6518113128764057e-06 1.8679143626490603e-06 0 -4.0625022452676921e-06 3.3245190469381961e-06 0 -4.6524243569033136e-06 1.6854282383311816e-06 0 -2.3619897218106206e-06 7.4285678139289202e-06 0 -3.0537238570586237e-06 8.7802666753835128e-06 0 -2.6862234333971208e-06 5.8517535157322063e-06 0 -4.1074975438410234e-06 5.5159503737842243e-06 0 -2.6862234333971208e-06 5.8517535157322063e-06 0 -3.0537238570586237e-06 8.7802666753835128e-06 0 -1.7935277509013277e-05 -3.0941804842887487e-05 0 -1.96025872333968e-05 -3.2979534418695133e-05 0 -1.7624973175024113e-05 -3.4051302868005736e-05 0 -2.4663321766338394e-05 -1.7296523713958399e-05 0 -2.2465004016667054e-05 -1.5820374431982884e-05 0 -2.1582972958311863e-05 -1.3726099640419148e-05 0 -1.187096994210613e-05 -6.6871862067426491e-06 0 -1.2397309389559511e-05 -9.8343397442412301e-06 0 -1.4743145039319633e-05 -8.9447989733875429e-06 0 -1.285077318921571e-05 -1.3479383149443226e-05 0 -1.4743145039319635e-05 -8.9447989733875429e-06 0 -1.2397309389559511e-05 -9.8343397442412301e-06 0 -1.1009803046998454e-05 -3.6138436695426194e-06 0 -1.4901507806843921e-05 -4.6479026027690118e-06 0 -1.2590747614033096e-05 -3.3353708736572277e-06 0 -2.2011338362844254e-05 5.5677697174510387e-06 0 -1.5915775131797147e-05 4.0669953637308492e-06 0 -1.8340972851999911e-05 3.6138452557684939e-06 0 -2.058824632662825e-05 -3.6684540164364142e-05 0 -1.8429384309980428e-05 -3.7925628441313013e-05 0 -2.0119329507231533e-05 -3.5079270548620603e-05 0 -1.2005188264108729e-05 1.2229850497844163e-05 0 -1.0213205338726332e-05 1.6959660996871446e-05 0 -1.7215083532174122e-05 1.8927147354072019e-05 0 -1.8812305194458182e-06 1.5665025417714941e-06 0 -1.8744937884039737e-06 2.0707422656210147e-06 0 -1.6190362015235964e-06 1.2490654812391418e-06 0 -3.9108426098832713e-06 -6.8273796660265009e-07 0 -5.9193458443970231e-06 -7.3112063854108791e-07 0 -6.9978035830809146e-06 -3.1627754714096155e-07 0 -3.0597754190338299e-06 9.0265616550224561e-08 0 -5.3499906156408719e-06 -3.6719724394596154e-07 0 -4.808846121742894e-06 3.4024260131019511e-08 0 -3.001318084967857e-06 9.950380265244399e-07 0 -3.2433519123388346e-06 8.8701582215640828e-07 0 -3.9584608370659851e-06 7.0737604808354448e-07 0 -1.0400928974848005e-05 -2.008888790910168e-06 0 -1.1225476269857687e-05 -1.5423893299179658e-06 0 -9.0703134094631102e-06 1.1127742202890979e-06 0 -1.4517904291844009e-05 -2.8033129439983174e-05 0 -1.6056391009937346e-05 -2.7037792571179279e-05 0 -1.6195763892312907e-05 -3.1102812195417815e-05 0 -4.9859861173971819e-06 3.6952231919564623e-07 0 -3.9584608370659843e-06 7.0737604808354448e-07 0 -3.2433519123388346e-06 8.8701582215640828e-07 0 -0.00010525510458999484 0.00015310151272610601 0 -8.1538111355291786e-05 0.00014022776079521349 0 -8.7989562018289221e-05 0.00016240301248401985 0 -8.6559131000871615e-06 -6.6816691220006978e-05 0 -1.765188128859738e-05 -6.2902186272360982e-05 0 -1.6859064625543302e-05 -7.31545925369575e-05 0 -7.9972325332116867e-06 -5.583524083067792e-05 0 -1.5261462754608831e-05 -5.2487882082870851e-05 0 -1.765188128859738e-05 -6.2902186272360982e-05 0 -1.5316429982511531e-05 -7.1059185738005193e-06 0 -1.347401233319219e-05 -3.3889348427228035e-06 0 -1.5243129047631886e-05 -5.720166207313967e-06 0 -2.4663321766338394e-05 -1.7296523713958399e-05 0 -2.464487437728733e-05 -1.8938711595380362e-05 0 -2.2465004016667054e-05 -1.5820374431982887e-05 0 -5.6289205105085455e-06 -1.0771705267587483e-08 0 -7.6646050457777904e-06 -1.7408856461347095e-06 0 -6.344883756152028e-06 -3.2765170014810802e-07 0 -1.2097577663331159e-05 -1.442991074537312e-06 0 -9.0703134094631102e-06 1.1127742202890979e-06 0 -1.1225476269857687e-05 -1.5423893299179654e-06 0 1.0946269337702514e-05 0.00024023689983961372 0 -2.5974062383210271e-06 0.00025255145726015444 0 -1.0687317469991032e-05 0.00024201358871985405 0 -6.4419123433281575e-05 -0.00011370315652904051 0 -5.8069743767632372e-05 -0.00011780442340890937 0 -5.3760849769828065e-05 -0.00011253218467604967 0 -1.4326075337876227e-05 -0.00011180688795023079 0 -2.3165227864728513e-05 -0.00011295570625828878 0 -1.9996381279837421e-05 -0.00011767639443499679 0 -0.0001088231449005264 0.00024476811622586858 0 -8.4705326352317603e-05 0.0002421550736439147 0 -9.4450168269022433e-05 0.00025406471017729916 0 -6.3415397730147311e-06 4.0681407128064316e-07 0 -4.9999285243643842e-06 7.7254871647014206e-07 0 -6.344883756152028e-06 -3.2765170014810802e-07 0 -5.6289205105085455e-06 -1.0771705267587483e-08 0 -6.344883756152028e-06 -3.2765170014810802e-07 0 -4.9999285243643842e-06 7.7254871647014206e-07 0 -9.7184412855812532e-06 -4.358526886077131e-06 0 -7.6646050457777904e-06 -1.7408856461347093e-06 0 -8.3659942293445681e-06 -2.501325459677148e-06 0 -3.350784172345888e-05 1.357665562631276e-05 0 -3.4953241695818221e-05 1.1600821910733689e-05 0 -2.5549319732935517e-05 7.7723908578991666e-06 0 -2.8097353898599017e-05 7.2610580596321367e-06 0 -2.5549319732935517e-05 7.7723908578991649e-06 0 -3.4953241695818221e-05 1.1600821910733689e-05 0 -1.0449341071053839e-05 7.0557582570913253e-06 0 -1.3938380523397366e-05 5.7813687595539817e-06 0 -9.4453335651694385e-06 3.7213009773136918e-06 0 -1.1871226502906939e-05 -4.4954766819076212e-06 0 -8.9740298848857368e-06 -2.1499832895825922e-06 0 -1.0240812248103038e-05 -2.3601571517107703e-06 0 -1.187096994210613e-05 -6.6871862067426491e-06 0 -1.1357229391525081e-05 -7.4699752667408492e-06 0 -1.2397309389559511e-05 -9.8343397442412301e-06 0 -7.0175659685562531e-06 -5.6537800409906205e-07 0 -5.4108353383559588e-06 1.6076888493783192e-07 0 -4.808846121742894e-06 3.4024260131019511e-08 0 -3.261663639902201e-06 4.2074424492196914e-07 0 -4.808846121742894e-06 3.4024260131019511e-08 0 -5.4108353383559597e-06 1.6076888493783189e-07 0 -3.7129054648122783e-06 -9.8174833088250017e-07 0 -5.9400605736335088e-06 -6.7027201994158173e-07 0 -5.9193458443970231e-06 -7.3112063854108781e-07 0 -8.9699490858581862e-06 -8.0957344904760445e-08 0 -5.9193458443970231e-06 -7.3112063854108791e-07 0 -5.9400605736335088e-06 -6.7027201994158173e-07 0 -4.3512408870231237e-05 -4.9970906982517388e-05 0 -4.8609250791374831e-05 -6.0292522469270381e-05 0 -4.0468021735158167e-05 -5.5786012500030373e-05 0 -4.1535229797612072e-05 -6.5034932926421595e-05 0 -4.0468021735158167e-05 -5.5786012500030373e-05 0 -4.8609250791374831e-05 -6.0292522469270381e-05 0 -1.3592818427805185e-06 -7.5972757330505126e-07 0 -8.7497855349194923e-07 -4.7123753924364463e-07 0 -2.0780851491446837e-06 -6.5772151056638432e-07 0 -1.2951372603843702e-06 -3.4706144307197613e-07 0 -2.0780851491446837e-06 -6.5772151056638432e-07 0 -8.7497855349194923e-07 -4.7123753924364463e-07 0 -1.8495828162026691e-06 8.6219779241276669e-07 0 -1.0808914100742802e-06 5.8223503452344459e-07 0 -2.4018947276826618e-06 8.3115329928637409e-07 0 -1.4264393287645342e-06 5.9122271196927988e-07 0 -2.4018947276826618e-06 8.3115329928637409e-07 0 -1.0808914100742802e-06 5.8223503452344459e-07 0 -4.4921251493845713e-05 0.00018884203313728531 0 -3.1106249581194047e-05 0.00017562274155836084 0 -2.9055210632579191e-05 0.00019833920549396197 0 -3.6459936879649352e-05 -8.7960663850211664e-05 0 -4.1586993542147654e-05 -8.2138463452962644e-05 0 -4.3763495801631759e-05 -9.2605703666457092e-05 0 -6.3292698982267554e-06 -4.3433285485521063e-08 0 -4.8603648788312044e-06 3.9194266759594421e-07 0 -5.4108353383559597e-06 1.6076888493783189e-07 0 -5.7514405193731576e-06 1.1457970968484682e-07 0 -5.9400605736335088e-06 -6.7027201994158173e-07 0 -4.5684492869242523e-06 -4.9046113059724201e-07 0 -1.1871226502906939e-05 -4.4954766819076212e-06 0 -1.1619990370203662e-05 -6.0319122872493716e-06 0 -9.6590677032422995e-06 -3.4855848380641593e-06 0 -7.0175659685562531e-06 -5.6537800409906205e-07 0 -7.7169917680775922e-06 -5.6659597876993858e-07 0 -5.4108353383559597e-06 1.6076888493783189e-07 0 -8.9699490858581862e-06 -8.0957344904760445e-08 0 -5.9400605736335088e-06 -6.7027201994158173e-07 0 -8.8079171471939405e-06 1.3826761541225068e-07 0 -1.285077318921571e-05 -1.3479383149443226e-05 0 -1.6788861095940303e-05 -1.0029661150958869e-05 0 -1.4743145039319633e-05 -8.9447989733875429e-06 0 -5.6289205105085455e-06 -1.0771705267587483e-08 0 -6.9118166054333662e-06 -1.1075997991935602e-06 0 -7.6646050457777904e-06 -1.7408856461347095e-06 0 -2.5436956702683206e-09 -7.4855390744809168e-10 0 -2.2162225372794201e-09 -3.483723439512005e-10 0 -1.8450654870363875e-06 -6.6090998636519519e-07 0 -1.888708880771933e-09 1.5162386919591046e-10 0 -2.0050084694947964e-09 3.5144339290911763e-10 0 -1.5446384263139467e-06 2.7436408920890118e-07 0 -5.4894944321826176e-06 1.2867549438096031e-05 0 -6.3651090410637946e-06 8.43592246288315e-06 0 -3.0537238570586237e-06 8.7802666753835128e-06 0 -2.1311857966843387e-05 -3.2396401367890556e-05 0 -2.1835654817552571e-05 -3.4316172821565071e-05 0 -2.0119329507231533e-05 -3.5079270548620603e-05 0 -1.1871226502906939e-05 -4.4954766819076212e-06 0 -1.3008604584113787e-05 -4.0686015161113945e-06 0 -1.5486607451272003e-05 -6.442203047117024e-06 0 -1.8602313630619555e-05 -3.567400373932116e-05 0 -1.3859755969960795e-05 -4.1156729083952726e-05 0 -1.3052944078959765e-05 -3.1428523110120933e-05 0 -6.3415397730147311e-06 4.0681407128064316e-07 0 -4.6524243569033136e-06 1.6854282383311816e-06 0 -4.9999285243643842e-06 7.7254871647014206e-07 0 -9.0204193828563082e-06 -2.8542920413179674e-06 0 -7.5418502033632251e-06 -1.1944276471426189e-06 0 -7.6646050457777904e-06 -1.7408856461347095e-06 0 -6.3544919496627883e-06 1.867090114165371e-07 0 -9.4698075686607423e-06 1.6701771196951456e-06 0 -4.5406327257992715e-06 7.5353776094730157e-07 0 -4.6500984060988937e-06 -6.8802550863658212e-07 0 -3.2483647657307477e-06 -9.1144352364401205e-07 0 -6.701833974054048e-06 -1.8375835861755973e-06 0 -1.3757245470638849e-05 -9.3216894949319347e-06 0 -1.3130966269144199e-05 -1.1303371894595153e-05 0 -1.1357229391525081e-05 -7.4699752667408492e-06 0 -3.3481239847589673e-06 2.321287395813132e-06 0 -3.7087511280650789e-06 1.4344237917693888e-06 0 -4.6524243569033136e-06 1.6854282383311816e-06 0 -7.7199355707670845e-06 -1.6149881318990516e-06 0 -8.9740298848857368e-06 -2.1499832895825927e-06 0 -9.6590677032422995e-06 -3.4855848380641593e-06 0 -2.2487367111503774e-05 -8.4175321880622355e-06 0 -2.335236109899206e-05 -1.0909319767357528e-05 0 -1.9029508345855888e-05 -7.7434227686541575e-06 0 -0.00010184253522809823 0.00012954012907123808 0 -8.2460702897489054e-05 0.00011907056547410825 0 -8.1538111355291786e-05 0.00014022776079521349 0 -1.3757245470638849e-05 -9.3216894949319347e-06 0 -1.4645677204044023e-05 -7.6685320316309161e-06 0 -1.7500214691577513e-05 -1.1164115797705455e-05 0 -1.5243129047631886e-05 -5.720166207313967e-06 0 -1.7943155099765802e-05 -9.2650897453406182e-06 0 -1.6640770545097343e-05 -8.3814156324609874e-06 0 -1.1871226502906939e-05 -4.4954766819076212e-06 0 -1.5486607451272003e-05 -6.442203047117024e-06 0 -1.4645677204044023e-05 -7.6685320316309161e-06 0 -4.9999285243643842e-06 7.7254871647014206e-07 0 -4.6524243569033136e-06 1.6854282383311816e-06 0 -3.7087511280650789e-06 1.4344237917693888e-06 0 -1.9933060071225877e-05 -1.1993794670308265e-05 0 -2.1582972958311863e-05 -1.3726099640419148e-05 0 -2.2465004016667054e-05 -1.5820374431982887e-05 0 -5.4894944321826176e-06 1.2867549438096031e-05 0 -1.2996744383741129e-06 1.431049881688155e-05 0 -4.9178671175603064e-06 1.927541037215785e-05 0 -1.1871226502906939e-05 -4.4954766819076212e-06 0 -1.0240812248103038e-05 -2.3601571517107703e-06 0 -1.3008604584113787e-05 -4.0686015161113945e-06 0 -0.00010742699770873049 0.00017675506367627105 0 -0.00010525510458999484 0.00015310151272610601 0 -8.7989562018289221e-05 0.00016240301248401985 0 -8.6559131000871615e-06 -6.6816691220006978e-05 0 -1.6859064625543302e-05 -7.31545925369575e-05 0 -9.6666764343059042e-06 -7.8145968139640279e-05 0 -7.7312153797612122e-06 -4.5298505158314687e-05 0 -1.5261462754608831e-05 -5.2487882082870851e-05 0 -7.9972325332116867e-06 -5.583524083067792e-05 0 -2.2791610264514238e-05 1.549659596165125e-05 0 -3.3680021788928588e-05 1.8549895778525607e-05 0 -2.7045445240424295e-05 1.2262080343414986e-05 0 2.0798934791710074e-06 1.7238542430807666e-06 0 -4.8361812358190895e-06 7.6587521890540038e-06 0 -4.7600623812754638e-06 -3.6098173962039369e-06 0 -2.2487367111503774e-05 -8.4175321880622355e-06 0 -2.3071762208298566e-05 -7.8776693390071556e-06 0 -2.674201264740252e-05 -1.0299084607551372e-05 0 -3.350784172345888e-05 1.357665562631276e-05 0 -4.1521497733969672e-05 1.6359546831608129e-05 0 -3.4953241695818221e-05 1.1600821910733689e-05 0 -2.2487367111503774e-05 -8.4175321880622355e-06 0 -2.674201264740252e-05 -1.0299084607551372e-05 0 -2.7881798898939237e-05 -1.2189916121378487e-05 0 -3.350784172345888e-05 1.357665562631276e-05 0 -4.2852274784742475e-05 2.0578974003281974e-05 0 -4.1521497733969672e-05 1.6359546831608129e-05 0 -4.6500984060988937e-06 -6.8802550863658212e-07 0 -2.26368639245721e-06 -1.6994998806046793e-07 0 -3.2483647657307477e-06 -9.1144352364401205e-07 0 -6.3544919496627883e-06 1.867090114165371e-07 0 -4.5406327257992715e-06 7.5353776094730157e-07 0 -3.0617246886309528e-06 -2.1913259193455515e-07 0 -9.0204193828563082e-06 -2.8542920413179674e-06 0 -1.0342378427484234e-05 -5.1084495107865898e-06 0 -1.0600988075813958e-05 -3.9280472013062726e-06 0 -1.187096994210613e-05 -6.6871862067426491e-06 0 -1.0600988075813958e-05 -3.9280472013062726e-06 0 -1.0342378427484234e-05 -5.1084495107865898e-06 0 -2.9575563677856626e-05 -2.7870377693867775e-05 0 -2.8967984976794868e-05 -2.7678444168876831e-05 0 -2.7114566613222086e-05 -2.4794566336626054e-05 0 -8.7238084456788989e-06 -2.0718859631009592e-05 0 -1.0495621170491346e-05 -2.157571833982847e-05 0 -1.1863786085238701e-05 -2.5285298690699875e-05 0 -7.6104887902765506e-07 -5.6593640957471104e-06 0 -4.7600623812754638e-06 -3.6098173962039365e-06 0 -5.4365793185765875e-06 -9.545952638985262e-06 0 -7.0975489734186332e-06 -1.7244743062090651e-05 0 -8.5751303877967104e-06 -1.7579827711561023e-05 0 -1.0495621170491346e-05 -2.157571833982847e-05 0 -2.8444337056488125e-05 -2.4764339012035457e-05 0 -2.7114566613222086e-05 -2.4794566336626054e-05 0 -2.6120165614187963e-05 -2.1977060624780535e-05 0 -1.1871226502906939e-05 -4.4954766819076212e-06 0 -9.6590677032422995e-06 -3.4855848380641593e-06 0 -8.9740298848857368e-06 -2.1499832895825922e-06 0 -9.7184412855812532e-06 -4.358526886077131e-06 0 -1.1357229391525081e-05 -7.4699752667408492e-06 0 -1.0342378427484234e-05 -5.1084495107865898e-06 0 -1.187096994210613e-05 -6.6871862067426491e-06 0 -1.0342378427484234e-05 -5.1084495107865898e-06 0 -1.1357229391525081e-05 -7.4699752667408492e-06 0 -6.3415397730147311e-06 4.0681407128064316e-07 0 -8.5665202555476021e-06 -1.4559941649501744e-06 0 -7.6907000049377963e-06 6.0065048974437933e-07 0 -0.00010184253522809823 0.00012954012907123808 0 -9.6857790886209291e-05 0.00010649154362643966 0 -8.2460702897489054e-05 0.00011907056547410825 0 -1.2097577663331159e-05 -1.442991074537312e-06 0 -1.1225476269857686e-05 -1.542389329917965e-06 0 -1.3353085629894455e-05 -4.0004626862367224e-06 0 -1.4881446028093764e-05 2.5698208192624907e-05 0 -1.021320533872633e-05 1.6959660996871446e-05 0 -4.9178671175603064e-06 1.927541037215785e-05 0 -5.4894944321826176e-06 1.2867549438096031e-05 0 -4.9178671175603064e-06 1.927541037215785e-05 0 -1.0213205338726332e-05 1.6959660996871446e-05 0 -8.012405227658016e-06 -3.5187015894330659e-05 0 -1.3859755969960795e-05 -4.1156729083952726e-05 0 -7.7312153797612122e-06 -4.5298505158314687e-05 0 -5.4022944121673465e-05 2.418939417054677e-05 0 -4.1521497733969672e-05 1.6359546831608129e-05 0 -4.2852274784742475e-05 2.0578974003281974e-05 0 -3.3106462143984659e-05 -1.4185868971094039e-05 0 -2.7881798898939237e-05 -1.2189916121378487e-05 0 -2.674201264740252e-05 -1.0299084607551372e-05 0 -1.0400928974848005e-05 -2.008888790910168e-06 0 -1.3353085629894455e-05 -4.0004626862367224e-06 0 -1.1225476269857687e-05 -1.5423893299179654e-06 0 -5.9150525609863848e-05 0.00013938446165752833 0 -8.1538111355291786e-05 0.00014022776079521349 0 -6.7996415594511392e-05 0.00012285839586669497 0 -5.9150525609863848e-05 0.00013938446165752833 0 -7.2435982259431853e-05 0.00015540347325959357 0 -8.1538111355291786e-05 0.00014022776079521349 0 -2.6321723406895545e-05 -6.3851040552102199e-05 0 -2.2615013076173593e-05 -7.0702233509488738e-05 0 -1.765188128859738e-05 -6.2902186272360982e-05 0 -2.6321723406895545e-05 -6.3851040552102199e-05 0 -1.7651881288597377e-05 -6.2902186272360968e-05 0 -2.132017001576903e-05 -5.6417746729546936e-05 0 -9.6666764343059042e-06 -7.8145968139640279e-05 0 -1.7130390196908561e-05 -8.3348124944223589e-05 0 -1.1145511014286878e-05 -8.9797109963366017e-05 0 -0.00010843089082689348 0.00020012982884388904 0 -0.00010742699770873049 0.00017675506367627105 0 -9.1344303973256761e-05 0.00018344000009362681 0 -3.7236185078042613e-06 6.7798894697113496e-07 0 -3.1237886158743506e-06 6.5586638287241383e-07 0 -4.8603648788312052e-06 3.919426675959441e-07 0 -3.1898963176227749e-06 -6.8652023655526519e-07 0 -4.5684492869242523e-06 -4.9046113059724201e-07 0 -2.96316967917698e-06 -9.9527462563528063e-07 0 -2.6321723406895545e-05 -6.3851040552102199e-05 0 -3.2184400188275376e-05 -6.4629279302904786e-05 0 -2.8727371469704905e-05 -7.3406650043850909e-05 0 -2.6321723406895545e-05 -6.3851040552102199e-05 0 -2.6775991382764148e-05 -5.5290467438985367e-05 0 -3.2184400188275376e-05 -6.4629279302904786e-05 0 -3.6298097873529584e-05 -7.519552689879822e-05 0 -2.8727371469704905e-05 -7.3406650043850909e-05 0 -3.2184400188275376e-05 -6.4629279302904786e-05 0 -3.3575304218484547e-05 -5.5264031537568955e-05 0 -3.2184400188275376e-05 -6.4629279302904786e-05 0 -2.6775991382764148e-05 -5.5290467438985367e-05 0 -5.9150525609863848e-05 0.00013938446165752833 0 -4.4217832679644271e-05 0.00014082659615077288 0 -5.8721369614924004e-05 0.0001607192063951394 0 -4.1063489599576203e-05 0.0001605002640253149 0 -5.8721369614924004e-05 0.0001607192063951394 0 -4.4217832679644271e-05 0.00014082659615077288 0 -1.888708880771933e-09 1.5162386919591046e-10 0 -1.5446384263139467e-06 2.7436408920890118e-07 0 -1.5217760593597314e-06 4.5679522537417993e-07 0 -2.2162225372794201e-09 -3.483723439512005e-10 0 -1.6412917965134175e-06 -8.0158034693614478e-07 0 -1.8450654870363875e-06 -6.6090998636519519e-07 0 -3.753225631511504e-05 -2.6534411712529954e-05 0 -3.0290611054904924e-05 -1.946488910379306e-05 0 -3.5199823173898437e-05 -1.9839722618665691e-05 0 -5.9020752569769076e-05 5.1900783902379411e-05 0 -5.6219558900428554e-05 3.7545930913538516e-05 0 -4.6360379391225043e-05 3.6288623476893867e-05 0 -1.5396165132381015e-05 -4.028386294754004e-06 0 -1.9454841346160205e-05 -6.1556776530736304e-06 0 -1.797174561370526e-05 -5.913922997388255e-06 0 -3.185860620221362e-06 1.260200762391429e-06 0 -4.1476401632933648e-06 8.3793990988540278e-07 0 -3.7087511280650789e-06 1.4344237917693888e-06 0 -1.8664876822926849e-05 -3.5237738132083438e-05 0 -1.7624973175024113e-05 -3.4051302868005736e-05 0 -1.96025872333968e-05 -3.2979534418695133e-05 0 -1.7027221545430555e-05 2.5853663326778526e-06 0 -2.0453415565563232e-05 3.9925643711041496e-06 0 -2.2932905378162852e-05 4.9196000919727986e-06 0 -2.8097353898599017e-05 7.2610580596321367e-06 0 -2.2932905378162852e-05 4.9196000919727986e-06 0 -2.0453415565563232e-05 3.9925643711041496e-06 0 -1.5491625505423033e-06 6.5971648184065667e-07 0 -1.6795148965657136e-06 -1.9618475803814411e-08 0 -1.1765581988060008e-06 4.1011023294145426e-08 0 -3.2765519125751025e-06 -1.0214507619192366e-05 0 -7.7676014342411976e-06 -1.4265684266994832e-05 0 -5.2409247855652629e-06 -1.3810535574870069e-05 0 -3.3106462143984659e-05 -1.4185868971094039e-05 0 -3.26726519112038e-05 -1.593618085117853e-05 0 -2.7881798898939237e-05 -1.2189916121378487e-05 0 -5.4022944121673465e-05 2.418939417054677e-05 0 -4.2852274784742475e-05 2.0578974003281974e-05 0 -5.2087294857403926e-05 2.8237648767708149e-05 0 -1.8073024288501106e-05 -1.1143081723468216e-05 0 -1.8751457327882152e-05 -1.0280604730717592e-05 0 -1.6788861095940303e-05 -1.0029661150958869e-05 0 -8.9699490858581862e-06 -8.0957344904760445e-08 0 -8.8079171471939405e-06 1.3826761541225068e-07 0 -1.3254433611015019e-05 1.2678218767034567e-06 0 -1.0899227514869317e-05 1.4180813477562956e-06 0 -1.3254433611015019e-05 1.267821876703457e-06 0 -8.8079171471939405e-06 1.3826761541225068e-07 0 -2.0031087864088508e-05 5.4798304887021262e-05 0 -1.7731482237548603e-05 3.8013856069719809e-05 0 -9.382729013746674e-06 3.4652383492369865e-05 0 -2.2011338362844254e-05 5.5677697174510387e-06 0 -1.8340972851999911e-05 3.6138452557684939e-06 0 -2.2932905378162852e-05 4.9196000919727986e-06 0 -1.4901507806843921e-05 -4.6479026027690118e-06 0 -1.5431108840189071e-05 -4.1563929921601381e-06 0 -1.2590747614033096e-05 -3.3353708736572277e-06 0 -2.005569431163041e-05 -2.3747576712621945e-05 0 -1.9719547302012655e-05 -2.0828778851545508e-05 0 -2.2153501986130834e-05 -2.3647911074059971e-05 0 -2.1496553241634927e-05 -2.0499471118429998e-05 0 -2.2153501986130834e-05 -2.3647911074059971e-05 0 -1.9719547302012655e-05 -2.0828778851545508e-05 0 -6.3415397730147311e-06 4.0681407128064316e-07 0 -5.6518113128764057e-06 1.8679143626490603e-06 0 -4.6524243569033136e-06 1.6854282383311816e-06 0 -1.0449341071053839e-05 7.0557582570913253e-06 0 -9.4453335651694385e-06 3.7213009773136913e-06 0 -6.6885815631120327e-06 4.7192042403413015e-06 0 -2.1335101285594046e-06 3.1166472457055294e-06 0 -2.2882457054780714e-06 2.4141615859031345e-06 0 -2.5773485038576939e-06 3.5277730664537224e-06 0 -1.4881446028093764e-05 2.5698208192624907e-05 0 -9.382729013746674e-06 3.4652383492369865e-05 0 -1.77314822375486e-05 3.8013856069719809e-05 0 -2.2487367111503774e-05 -8.4175321880622355e-06 0 -1.9029508345855888e-05 -7.7434227686541575e-06 0 -1.797174561370526e-05 -5.913922997388255e-06 0 -7.7199355707670845e-06 -1.6149881318990516e-06 0 -5.9893739414239951e-06 -3.1657827123580325e-07 0 -6.6595852273846229e-06 -5.108284625762911e-07 0 1.5433090433371647e-05 7.812957780528548e-05 0 1.7170934705483443e-05 0.0001005609597727342 0 2.2431015038721147e-06 9.3501067576063599e-05 0 -5.9483792033708157e-05 -6.1011282444409504e-05 0 -4.8609250791374831e-05 -6.0292522469270381e-05 0 -5.0500926976377203e-05 -5.2684082854182614e-05 0 -5.4022944121673465e-05 2.418939417054677e-05 0 -4.4671170539234989e-05 1.6815577581071167e-05 0 -4.1521497733969672e-05 1.6359546831608129e-05 0 -2.8079944311776882e-05 -1.067150463484762e-05 0 -3.3106462143984659e-05 -1.4185868971094039e-05 0 -2.674201264740252e-05 -1.0299084607551372e-05 0 -9.0703134094631102e-06 1.1127742202890979e-06 0 -1.0206206057486695e-05 1.5276755370977812e-06 0 -6.9436973232015462e-06 4.2750690878485772e-06 0 -8.9699490858581862e-06 -8.0957344904760445e-08 0 -1.3254433611015019e-05 1.2678218767034567e-06 0 -1.2427807859606588e-05 1.0613417399698868e-06 0 -1.7027221545430555e-05 2.5853663326778526e-06 0 -1.2427807859606588e-05 1.0613417399698868e-06 0 -1.3254433611015019e-05 1.2678218767034567e-06 0 -2.3619897218106206e-06 7.4285678139289202e-06 0 -2.1167747864328796e-06 1.0334024682208937e-05 0 -3.0537238570586237e-06 8.7802666753835128e-06 0 -5.1280974999711999e-05 -7.1794966386443156e-05 0 -4.8609250791374831e-05 -6.0292522469270381e-05 0 -5.5301827695322929e-05 -6.6344138917151938e-05 0 -2.4350008859760079e-05 -2.0065673452900558e-05 0 -2.3182832777021912e-05 -2.0234035657126729e-05 0 -2.2388498901084795e-05 -1.7181327826012203e-05 0 1.6819160457905012e-05 0.00017043704492916012 0 1.5198392613792652e-05 0.00019446816117292946 0 7.0227941648067226e-07 0.00018235638854557633 0 -6.3354806126526416e-05 -8.2760909952496695e-05 0 -6.411905112503094e-05 -9.3505156683673557e-05 0 -5.643553303533037e-05 -8.6549135449899263e-05 0 -2.2791610264514238e-05 1.549659596165125e-05 0 -1.5581970528177693e-05 9.8514885848048225e-06 0 -1.2005188264108729e-05 1.2229850497844163e-05 0 -1.3757245470638849e-05 -9.3216894949319347e-06 0 -1.6454667999320584e-05 -1.3518721127547049e-05 0 -1.3130966269144199e-05 -1.1303371894595152e-05 0 -1.880739972808636e-05 -9.5403089327931063e-06 0 -1.7500214691577513e-05 -1.1164115797705455e-05 0 -1.4645677204044023e-05 -7.6685320316309161e-06 0 -0.00010742699770873049 0.00017675506367627105 0 -8.7989562018289221e-05 0.00016240301248401985 0 -9.1344303973256761e-05 0.00018344000009362681 0 -9.6666764343059042e-06 -7.8145968139640279e-05 0 -1.6859064625543302e-05 -7.31545925369575e-05 0 -1.7130390196908561e-05 -8.3348124944223589e-05 0 -8.1821016653987496e-06 -1.199682210781023e-06 0 -6.5002063383821643e-06 -2.114471707487509e-07 0 -8.4437514101286669e-06 -9.5740917157875607e-07 0 -5.4894944321826176e-06 1.2867549438096031e-05 0 -1.0213205338726332e-05 1.6959660996871446e-05 0 -1.2005188264108729e-05 1.2229850497844163e-05 0 -2.2487367111503774e-05 -8.4175321880622355e-06 0 -1.9454841346160205e-05 -6.1556776530736295e-06 0 -2.3071762208298566e-05 -7.8776693390071556e-06 0 -2.1691213350190423e-05 -1.3737839959153668e-05 0 -2.4663321766338394e-05 -1.7296523713958399e-05 0 -2.1582972958311863e-05 -1.3726099640419148e-05 0 -9.6775173608029961e-06 -1.3833008876146313e-06 0 -9.4199194860427328e-06 -1.3183076723997623e-06 0 -1.2257879907365326e-05 -2.4561198005964949e-06 0 -5.6442210466343842e-05 -5.0611341660701962e-05 0 -5.9483792033708157e-05 -6.1011282444409504e-05 0 -5.0500926976377203e-05 -5.2684082854182614e-05 0 -1.8406067104927253e-05 -5.3327956284061259e-06 0 -1.4756149082428471e-05 -3.6031157708966904e-06 0 -1.5431108840189071e-05 -4.1563929921601381e-06 0 -1.2079532446876469e-05 -2.5780370339982085e-06 0 -1.5431108840189071e-05 -4.1563929921601381e-06 0 -1.4756149082428471e-05 -3.6031157708966904e-06 0 -6.620320103975833e-05 0.00010652786724209729 0 -5.137932630047855e-05 0.00010988647335013827 0 -6.7996415594511392e-05 0.00012285839586669497 0 -1.3592818427805185e-06 -7.5972757330505126e-07 0 -2.96316967917698e-06 -9.9527462563528063e-07 0 -1.6412917965134175e-06 -8.0158034693614478e-07 0 -3.7129054648122783e-06 -9.8174833088250017e-07 0 -1.6412917965134175e-06 -8.0158034693614478e-07 0 -2.96316967917698e-06 -9.9527462563528063e-07 0 -3.261663639902201e-06 4.2074424492196914e-07 0 -3.1237886158743506e-06 6.5586638287241383e-07 0 -1.5217760593597314e-06 4.5679522537417993e-07 0 -1.4264393287645342e-06 5.9122271196927988e-07 0 -1.5217760593597314e-06 4.5679522537417993e-07 0 -3.1237886158743506e-06 6.5586638287241383e-07 0 -9.7184412855812532e-06 -4.358526886077131e-06 0 -9.6590677032422995e-06 -3.4855848380641593e-06 0 -1.1619990370203662e-05 -6.0319122872493716e-06 0 -1.1941734749463391e-05 -1.3205975393631956e-06 0 -1.347401233319219e-05 -3.3889348427228035e-06 0 -1.3660061673479262e-05 -5.8536918165358766e-06 0 -1.5316429982511531e-05 -7.1059185738005193e-06 0 -1.3660061673479262e-05 -5.8536918165358766e-06 0 -1.347401233319219e-05 -3.3889348427228035e-06 0 -2.4663321766338394e-05 -1.7296523713958399e-05 0 -2.6874522981712987e-05 -2.1207588030557222e-05 0 -2.464487437728733e-05 -1.8938711595380362e-05 0 -1.5316429982511531e-05 -7.1059185738005193e-06 0 -1.5243129047631886e-05 -5.720166207313967e-06 0 -1.6640770545097343e-05 -8.3814156324609874e-06 0 -1.0495621170491346e-05 -2.157571833982847e-05 0 -8.5751303877967104e-06 -1.7579827711561023e-05 0 -1.2345584406428333e-05 -2.1133578726509497e-05 0 -2.7114566613222086e-05 -2.4794566336626054e-05 0 -2.5141814645140658e-05 -2.2145613215727385e-05 0 -2.6120165614187963e-05 -2.1977060624780535e-05 0 -3.3106462143984659e-05 -1.4185868971094039e-05 0 -3.8290308976915838e-05 -1.8964501838000422e-05 0 -3.26726519112038e-05 -1.593618085117853e-05 0 -6.392163821726708e-05 3.4749766554570615e-05 0 -5.4022944121673465e-05 2.418939417054677e-05 0 -5.2087294857403926e-05 2.8237648767708149e-05 0 -4.7600623812754638e-06 -3.6098173962039369e-06 0 -8.9792546313709708e-06 -7.3230220730504814e-06 0 -5.4365793185765875e-06 -9.545952638985262e-06 0 -1.0495621170491346e-05 -2.157571833982847e-05 0 -1.367008386437375e-05 -2.4993739004517021e-05 0 -1.1863786085238701e-05 -2.5285298690699875e-05 0 -1.880739972808636e-05 -9.5403089327931063e-06 0 -1.9029508345855888e-05 -7.7434227686541575e-06 0 -2.335236109899206e-05 -1.0909319767357528e-05 0 -1.1547365935599491e-06 7.3585572727362905e-07 0 -4.6669331403821178e-07 3.2800131246456122e-07 0 -5.5776088064493602e-07 4.0293949902634216e-07 0 -6.4603169075566e-06 2.6331953012858895e-06 0 -9.4453335651694385e-06 3.7213009773136918e-06 0 -8.1193443846699967e-06 1.3361470054334847e-06 0 -2.983886925705073e-06 1.681270273761594e-06 0 -4.9345759837152176e-06 1.4236318524619124e-06 0 -3.8650970467031222e-06 5.9529287626378462e-07 0 -6.7156026294964823e-06 7.2544219919449188e-06 0 -9.2957188355703391e-06 3.1045221672879198e-06 0 -8.6674036673902688e-06 3.2866089926522657e-07 0 -9.2937672789428052e-06 -2.1168326145411437e-06 0 -7.0669534905511863e-06 -1.1099657383370249e-06 0 -6.701833974054048e-06 -1.8375835861755973e-06 0 -4.6500984060988937e-06 -6.8802550863658212e-07 0 -6.701833974054048e-06 -1.8375835861755973e-06 0 -7.0669534905511863e-06 -1.1099657383370249e-06 0 -6.3544919496627883e-06 1.867090114165371e-07 0 -9.6885761484059593e-06 5.5190442942748433e-07 0 -9.4698075686607423e-06 1.6701771196951456e-06 0 -1.3154311128226338e-05 1.8659779688421457e-06 0 -9.4698075686607423e-06 1.6701771196951456e-06 0 -9.6885761484059593e-06 5.5190442942748433e-07 0 -4.813154948606268e-05 -3.2359927275732686e-05 0 -5.2686793834090771e-05 -4.1022506851984782e-05 0 -4.4468437446715727e-05 -3.535094907068114e-05 0 -2.0031087864088508e-05 5.4798304887021262e-05 0 -2.7026083202982507e-05 4.0516416116517284e-05 0 -1.77314822375486e-05 3.8013856069719809e-05 0 -7.7312153797612122e-06 -4.5298505158314687e-05 0 -1.3859755969960795e-05 -4.1156729083952726e-05 0 -1.5261462754608831e-05 -5.2487882082870851e-05 0 -1.7935277509013277e-05 -3.0941804842887487e-05 0 -2.0170416620729779e-05 -3.0117501766957099e-05 0 -1.96025872333968e-05 -3.2979534418695133e-05 0 -6.3292698982267554e-06 -4.3433285485521063e-08 0 -8.4437514101286669e-06 -9.5740917157875607e-07 0 -6.5002063383821643e-06 -2.1144717074875093e-07 0 -1.0400928974848005e-05 -2.008888790910168e-06 0 -7.6907000049377963e-06 6.0065048974437933e-07 0 -8.5665202555476021e-06 -1.4559941649501744e-06 0 -1.5396165132381015e-05 -4.028386294754004e-06 0 -1.2257879907365326e-05 -2.4561198005964949e-06 0 -1.4756149082428471e-05 -3.6031157708966904e-06 0 -1.3038380441051688e-05 0.00010098160437694415 0 3.6496760572042894e-06 0.00010835754917277833 0 -5.1247450750137537e-06 0.00012177173468908223 0 -8.6515549573650779e-10 2.2141116895057367e-10 0 -9.3913206279648804e-07 6.0970511588113617e-07 0 -5.5776088064493602e-07 4.0293949902634216e-07 0 -2.1496553241634927e-05 -2.0499471118429998e-05 0 -1.9719547302012655e-05 -2.0828778851545508e-05 0 -1.9043322999752484e-05 -1.7260112610095711e-05 0 -4.7600623812754638e-06 -3.6098173962039369e-06 0 -4.8361812358190895e-06 7.6587521890540038e-06 0 -8.6674036673902688e-06 3.2866089926522657e-07 0 -9.0470406084199259e-05 8.496230759719357e-05 0 -8.2283935203052231e-05 6.5249113723225469e-05 0 -7.291657928146495e-05 7.2562626939344976e-05 0 -8.2049167320988777e-07 5.0945334261036972e-07 0 -9.2378640819357274e-07 4.2413365080499066e-07 0 -5.2887501658529599e-07 1.9093353576687352e-07 0 -3.261663639902201e-06 4.2074424492196914e-07 0 -1.5217760593597314e-06 4.5679522537417993e-07 0 -1.5446384263139467e-06 2.7436408920890118e-07 0 -3.7129054648122783e-06 -9.8174833088250017e-07 0 -1.8450654870363875e-06 -6.6090998636519519e-07 0 -1.6412917965134175e-06 -8.0158034693614478e-07 0 -3.3481239847589673e-06 2.321287395813132e-06 0 -2.7980593535283247e-06 1.781583851126469e-06 0 -3.7087511280650789e-06 1.4344237917693888e-06 0 -2.8797505844105724e-05 -1.518384851911734e-05 0 -2.7881798898939237e-05 -1.2189916121378487e-05 0 -3.26726519112038e-05 -1.593618085117853e-05 0 -4.3206290434092933e-05 2.7182425383236219e-05 0 -5.2087294857403926e-05 2.8237648767708149e-05 0 -4.2852274784742475e-05 2.0578974003281974e-05 0 -1.4983487750204575e-05 0.00017573461555138082 0 -5.8219838676923871e-06 0.00015392203903341923 0 2.7436813238706332e-06 0.00016624245626999839 0 -4.8757666071637259e-05 -8.2628016108702353e-05 0 -5.1280974999711999e-05 -7.1794966386443156e-05 0 -5.6366053507795439e-05 -7.8966257006294341e-05 0 -3.2765519125751025e-06 -1.0214507619192366e-05 0 -5.4365793185765875e-06 -9.545952638985262e-06 0 -7.7676014342411976e-06 -1.4265684266994832e-05 0 -1.0449341071053839e-05 7.0557582570913253e-06 0 -1.2005188264108729e-05 1.2229850497844163e-05 0 -1.5581970528177693e-05 9.8514885848048225e-06 0 -9.2391765188952183e-06 -1.1829080999192289e-05 0 -7.7676014342411976e-06 -1.4265684266994832e-05 0 -5.4365793185765875e-06 -9.545952638985262e-06 0 -3.185860620221362e-06 1.260200762391429e-06 0 -2.9597414773286058e-06 1.1135259825876882e-06 0 -4.1476401632933648e-06 8.3793990988540278e-07 0 -8.5327732154322631e-07 1.710841328436958e-07 0 -6.9356066808351455e-07 -1.9761008062839141e-07 0 -4.3682898141124523e-07 -4.5966105096945771e-09 0 -8.1821016653987496e-06 -1.199682210781023e-06 0 -6.6595852273846229e-06 -5.1082846257629121e-07 0 -6.5002063383821643e-06 -2.1144717074875093e-07 0 -7.6898138353998334e-06 5.5621675975718802e-06 0 -9.2957188355703391e-06 3.1045221672879198e-06 0 -5.5154618478641279e-06 9.4159204496848997e-06 0 -6.7156026294964823e-06 7.2544219919449188e-06 0 -5.5154618478641279e-06 9.4159204496848997e-06 0 -9.2957188355703391e-06 3.1045221672879198e-06 0 -4.1535229797612072e-05 -6.5034932926421595e-05 0 -5.1280974999711999e-05 -7.1794966386443156e-05 0 -4.3900139652094932e-05 -7.5021804129329745e-05 0 -4.8757666071637259e-05 -8.2628016108702353e-05 0 -4.3900139652094932e-05 -7.5021804129329745e-05 0 -5.1280974999711999e-05 -7.1794966386443156e-05 0 -2.1785199395631688e-05 0.00013850736597795639 0 -5.8219838676923871e-06 0.00015392203903341923 0 -2.3105754940584693e-05 0.00016101547232880059 0 -1.4983487750204575e-05 0.00017573461555138082 0 -2.3105754940584693e-05 0.00016101547232880059 0 -5.8219838676923871e-06 0.00015392203903341923 0 -2.1785199395631688e-05 0.00013850736597795639 0 -2.2490418381781392e-05 0.00011677963717816151 0 -5.1247450750137537e-06 0.00012177173468908223 0 -1.3038380441051688e-05 0.00010098160437694415 0 -5.1247450750137537e-06 0.00012177173468908223 0 -2.2490418381781392e-05 0.00011677963717816151 0 -6.8270008825727367e-10 1.6667605118970926e-10 0 -7.3574999504619054e-10 1.9239768714216535e-10 0 -4.6669331403821178e-07 3.2800131246456122e-07 0 -5.2409247855652629e-06 -1.3810535574870069e-05 0 -7.7676014342411976e-06 -1.4265684266994832e-05 0 -8.5751303877967104e-06 -1.7579827711561023e-05 0 -1.0983493509702442e-05 -1.8093272035271352e-05 0 -8.5751303877967104e-06 -1.7579827711561023e-05 0 -7.7676014342411976e-06 -1.4265684266994832e-05 0 -4.3512408870231237e-05 -4.9970906982517388e-05 0 -4.5898177766255295e-05 -4.3513532794192481e-05 0 -5.0500926976377203e-05 -5.2684082854182614e-05 0 -5.2686793834090771e-05 -4.1022506851984782e-05 0 -4.5898177766255295e-05 -4.3513532794192481e-05 0 -4.4468437446715727e-05 -3.535094907068114e-05 0 -9.0470406084199259e-05 8.496230759719357e-05 0 -7.291657928146495e-05 7.2562626939344976e-05 0 -7.4313829332637996e-05 9.1756058970725405e-05 0 -3.047399653914376e-06 4.7236760255119653e-06 0 -2.9802629756453109e-06 6.2831268584751811e-06 0 -2.3565984197553165e-06 4.9989147815034042e-06 0 -2.3619897218106206e-06 7.4285678139289202e-06 0 -2.3565984197553165e-06 4.9989147815034042e-06 0 -2.9802629756453109e-06 6.2831268584751811e-06 0 -2.02149011740137e-06 1.1427135168273007e-06 0 -2.3643064347664105e-06 1.345129161609205e-06 0 -1.7309706519527788e-06 1.181995612483046e-06 0 -1.1547365935599491e-06 7.3585572727362905e-07 0 -5.5776088064493592e-07 4.0293949902634216e-07 0 -9.3913206279648804e-07 6.0970511588113617e-07 0 -1.7027221545430555e-05 2.5853663326778526e-06 0 -2.2932905378162852e-05 4.9196000919727986e-06 0 -1.8340972851999911e-05 3.6138452557684939e-06 0 -1.2079532446876469e-05 -2.5780370339982085e-06 0 -1.2590747614033096e-05 -3.3353708736572277e-06 0 -1.5431108840189071e-05 -4.1563929921601381e-06 0 -1.2079532446876469e-05 -2.5780370339982085e-06 0 -1.4756149082428471e-05 -3.6031157708966904e-06 0 -1.2257879907365326e-05 -2.4561198005964949e-06 0 1.7615348852911422e-05 0.00014692964913973832 0 2.7436813238706332e-06 0.00016624245626999839 0 -5.8219838676923871e-06 0.00015392203903341923 0 -6.182450762090379e-05 -7.1778510576880691e-05 0 -5.6366053507795439e-05 -7.8966257006294341e-05 0 -5.1280974999711999e-05 -7.1794966386443156e-05 0 -6.7448063987896051e-10 2.6604313228504827e-11 0 -4.3682898141124528e-07 -4.5966105096946019e-09 0 -6.9356066808351455e-07 -1.9761008062839141e-07 0 -2.983886925705073e-06 1.681270273761594e-06 0 -4.2748490747015441e-06 3.0475394482375779e-06 0 -4.9345759837152176e-06 1.4236318524619124e-06 0 -3.0941975117198922e-05 -4.2339101861827298e-05 0 -3.3739370610848749e-05 -3.5517950294833505e-05 0 -3.7075514627254826e-05 -4.2385583453617446e-05 0 -1.2326495887775382e-05 3.0688025741752676e-06 0 -9.4453335651694368e-06 3.7213009773136913e-06 0 -1.3938380523397366e-05 5.7813687595539817e-06 0 -1.3757245470638849e-05 -9.3216894949319347e-06 0 -1.7500214691577513e-05 -1.1164115797705455e-05 0 -1.6454667999320584e-05 -1.3518721127547049e-05 0 -2.6113725350185484e-06 3.7502395293619743e-06 0 -2.3565984197553165e-06 4.9989147815034042e-06 0 -2.6862234333971208e-06 5.8517535157322063e-06 0 -4.1072237796062364e-05 8.5984409971016359e-05 0 -5.6647390561006951e-05 8.946603863865338e-05 0 -4.8346038463334928e-05 7.3426724988558727e-05 0 -2.8797505844105724e-05 -1.518384851911734e-05 0 -3.5199823173898437e-05 -1.9839722618665691e-05 0 -3.0290611054904924e-05 -1.946488910379306e-05 0 -4.3206290434092933e-05 2.7182425383236219e-05 0 -4.6360379391225043e-05 3.6288623476893867e-05 0 -5.6219558900428554e-05 3.7545930913538516e-05 0 -2.1311857966843387e-05 -3.2396401367890556e-05 0 -2.0119329507231533e-05 -3.5079270548620603e-05 0 -1.96025872333968e-05 -3.2979534418695133e-05 0 -1.8664876822926849e-05 -3.5237738132083438e-05 0 -1.96025872333968e-05 -3.2979534418695133e-05 0 -2.0119329507231533e-05 -3.5079270548620603e-05 0 -1.5396165132381015e-05 -4.028386294754004e-06 0 -1.2359101986912872e-05 -2.6822440652553669e-06 0 -1.2257879907365326e-05 -2.4561198005964949e-06 0 -9.6775173608029961e-06 -1.3833008876146313e-06 0 -1.2257879907365326e-05 -2.4561198005964949e-06 0 -1.2359101986912872e-05 -2.6822440652553669e-06 0 -7.7199355707670845e-06 -1.6149881318990516e-06 0 -9.6590677032422995e-06 -3.4855848380641593e-06 0 -8.3659942293445681e-06 -2.501325459677148e-06 0 -1.8406067104927253e-05 -5.3327956284061259e-06 0 -2.3071762208298566e-05 -7.8776693390071556e-06 0 -1.9454841346160205e-05 -6.1556776530736295e-06 0 -1.9772718734904441e-05 4.7759473375249431e-06 0 -2.0453415565563232e-05 3.9925643711041496e-06 0 -1.5263386073678448e-05 2.7070721344424551e-06 0 -2.322485893047274e-05 -3.5372255869989611e-05 0 -2.058824632662825e-05 -3.6684540164364142e-05 0 -2.1835654817552571e-05 -3.4316172821565071e-05 0 -4.1072237796062364e-05 8.5984409971016359e-05 0 -5.137932630047855e-05 0.00010988647335013827 0 -5.6647390561006951e-05 8.946603863865338e-05 0 -7.3574999504619054e-10 1.9239768714216535e-10 0 -8.6515549573650779e-10 2.2141116895057367e-10 0 -5.5776088064493602e-07 4.0293949902634216e-07 0 1.7753937785429949e-05 0.00012353916381747422 0 -5.1247450750137537e-06 0.00012177173468908223 0 3.6496760572042894e-06 0.00010835754917277833 0 -2.4638317972202405e-06 1.171815019448771e-05 0 -1.2996744383741129e-06 1.431049881688155e-05 0 -2.11677478643288e-06 1.0334024682208937e-05 0 -4.3206290434092933e-05 2.7182425383236219e-05 0 -3.4643136530934751e-05 2.5793576150144383e-05 0 -4.6360379391225043e-05 3.6288623476893867e-05 0 -2.4638317972202405e-06 1.171815019448771e-05 0 -2.937851092917262e-06 8.6876198557171847e-06 0 -4.4819261203868121e-06 8.7123502505085793e-06 0 -2.4638317972202405e-06 1.171815019448771e-05 0 -2.11677478643288e-06 1.0334024682208935e-05 0 -2.937851092917262e-06 8.6876198557171847e-06 0 -1.1189664029117907e-05 -2.3851038404121211e-06 0 -1.4245324864799202e-05 -3.9651167147946726e-06 0 -1.3008604584113787e-05 -4.0686015161113945e-06 0 -4.9859861173971819e-06 3.6952231919564623e-07 0 -6.5002063383821643e-06 -2.1144717074875093e-07 0 -6.6595852273846229e-06 -5.108284625762911e-07 0 -5.9417502310871504e-05 7.2151882902087047e-05 0 -7.4313829332637996e-05 9.1756058970725405e-05 0 -7.291657928146495e-05 7.2562626939344976e-05 0 -1.187096994210613e-05 -6.6871862067426491e-06 0 -1.292475931388321e-05 -5.5299175500263746e-06 0 -1.0600988075813958e-05 -3.9280472013062726e-06 0 -7.6898138353998334e-06 5.5621675975718802e-06 0 -5.5154618478641279e-06 9.4159204496848997e-06 0 -4.4819261203868121e-06 8.7123502505085793e-06 0 -2.0981606228789066e-05 -1.7103205326360002e-05 0 -1.8939830549676109e-05 -1.4009951249791838e-05 0 -2.0149024884628876e-05 -1.3619591462880969e-05 0 -2.8797505844105724e-05 -1.518384851911734e-05 0 -3.26726519112038e-05 -1.593618085117853e-05 0 -3.5199823173898437e-05 -1.9839722618665691e-05 0 -4.3206290434092933e-05 2.7182425383236219e-05 0 -5.6219558900428554e-05 3.7545930913538516e-05 0 -5.2087294857403926e-05 2.8237648767708149e-05 0 -7.513770973399542e-05 0.0001745739934953161 0 -9.1344303973256761e-05 0.00018344000009362681 0 -8.7989562018289221e-05 0.00016240301248401985 0 -2.3198071885223235e-05 -8.0069385572161528e-05 0 -1.7130390196908561e-05 -8.3348124944223589e-05 0 -1.6859064625543302e-05 -7.31545925369575e-05 0 -2.4350008859760079e-05 -2.0065673452900558e-05 0 -2.2388498901084795e-05 -1.7181327826012203e-05 0 -2.464487437728733e-05 -1.8938711595380362e-05 0 -2.3619897218106206e-06 7.4285678139289202e-06 0 -2.6862234333971208e-06 5.8517535157322063e-06 0 -2.3565984197553165e-06 4.9989147815034042e-06 0 -1.0899227514869317e-05 1.4180813477562956e-06 0 -1.5263386073678448e-05 2.7070721344424551e-06 0 -1.3254433611015019e-05 1.2678218767034567e-06 0 -2.2487367111503774e-05 -8.4175321880622355e-06 0 -1.797174561370526e-05 -5.913922997388255e-06 0 -1.9454841346160205e-05 -6.1556776530736295e-06 0 -3.350784172345888e-05 1.357665562631276e-05 0 -2.7045445240424295e-05 1.2262080343414986e-05 0 -3.3680021788928588e-05 1.8549895778525607e-05 0 -1.1357229391525081e-05 -7.4699752667408492e-06 0 -1.3130966269144199e-05 -1.1303371894595152e-05 0 -1.2397309389559511e-05 -9.8343397442412301e-06 0 -1.587822665108262e-05 -5.5475803910056732e-06 0 -1.797174561370526e-05 -5.913922997388255e-06 0 -1.9029508345855888e-05 -7.7434227686541575e-06 0 -7.6898138353998334e-06 5.5621675975718802e-06 0 -6.9436973232015462e-06 4.2750690878485772e-06 0 -1.0206206057486695e-05 1.5276755370977812e-06 0 -6.7448063987896051e-10 2.6604313228504827e-11 0 -6.5948598173910448e-10 -3.2742160197299625e-11 0 -4.3682898141124523e-07 -4.5966105096945771e-09 0 -2.4404744391486222e-05 -2.3366229733077498e-05 0 -2.5141814645140658e-05 -2.2145613215727385e-05 0 -2.7114566613222086e-05 -2.4794566336626054e-05 0 -2.8079944311776882e-05 -1.067150463484762e-05 0 -2.674201264740252e-05 -1.0299084607551372e-05 0 -2.3071762208298566e-05 -7.8776693390071556e-06 0 -4.4671170539234989e-05 1.6815577581071167e-05 0 -3.4953241695818221e-05 1.1600821910733689e-05 0 -4.1521497733969672e-05 1.6359546831608129e-05 0 -3.8539826911515666e-05 -3.4775443057251394e-05 0 -4.4468437446715727e-05 -3.535094907068114e-05 0 -4.5898177766255295e-05 -4.3513532794192481e-05 0 -2.0482750474787029e-05 -1.6042381126358405e-05 0 -1.9976902927420406e-05 -1.9750885609836197e-05 0 -1.6454667999320584e-05 -1.3518721127547049e-05 0 -1.5644531599370831e-05 -1.6352278020947249e-05 0 -1.6454667999320584e-05 -1.3518721127547049e-05 0 -1.9976902927420406e-05 -1.9750885609836197e-05 0 -1.587822665108262e-05 -5.5475803910056732e-06 0 -1.5486607451272003e-05 -6.442203047117024e-06 0 -1.3008604584113787e-05 -4.0686015161113945e-06 0 -2.0981606228789066e-05 -1.7103205326360002e-05 0 -2.0149024884628876e-05 -1.3619591462880969e-05 0 -2.2388498901084795e-05 -1.7181327826012203e-05 0 -4.3512408870231237e-05 -4.9970906982517388e-05 0 -3.7061650415599441e-05 -4.9055078035118613e-05 0 -3.7075514627254826e-05 -4.2385583453617446e-05 0 -1.587822665108262e-05 -5.5475803910056732e-06 0 -1.3008604584113787e-05 -4.0686015161113945e-06 0 -1.4245324864799202e-05 -3.9651167147946726e-06 0 -1.8185278594842718e-05 -1.1110838817343988e-05 0 -2.0149024884628876e-05 -1.3619591462880969e-05 0 -1.8939830549676109e-05 -1.4009951249791838e-05 0 -1.2951372603843702e-06 -3.4706144307197613e-07 0 -1.1765581988060008e-06 4.1011023294145459e-08 0 -1.6795148965657136e-06 -1.9618475803814411e-08 0 -3.8290308976915838e-05 -1.8964501838000422e-05 0 -3.5199823173898437e-05 -1.9839722618665691e-05 0 -3.26726519112038e-05 -1.593618085117853e-05 0 -6.392163821726708e-05 3.4749766554570615e-05 0 -5.2087294857403926e-05 2.8237648767708149e-05 0 -5.6219558900428554e-05 3.7545930913538516e-05 0 -6.182450762090379e-05 -7.1778510576880691e-05 0 -5.1280974999711999e-05 -7.1794966386443156e-05 0 -5.5301827695322929e-05 -6.6344138917151938e-05 0 1.7615348852911422e-05 0.00014692964913973832 0 -5.8219838676923871e-06 0.00015392203903341923 0 2.2083216915704346e-07 0.00013737052544273053 0 1.7753937785429949e-05 0.00012353916381747422 0 2.2083216915704346e-07 0.00013737052544273053 0 -5.1247450750137537e-06 0.00012177173468908223 0 -6.182450762090379e-05 -7.1778510576880691e-05 0 -6.3354806126526416e-05 -8.2760909952496695e-05 0 -5.6366053507795439e-05 -7.8966257006294341e-05 0 1.7615348852911422e-05 0.00014692964913973832 0 1.6819160457905012e-05 0.00017043704492916012 0 2.7436813238706332e-06 0.00016624245626999839 0 -9.2391765188952183e-06 -1.1829080999192289e-05 0 -8.9792546313709725e-06 -7.3230220730504814e-06 0 -1.1867208059444451e-05 -1.116121258757805e-05 0 -2.2465004016667054e-05 -1.5820374431982887e-05 0 -2.464487437728733e-05 -1.8938711595380362e-05 0 -2.2388498901084795e-05 -1.7181327826012203e-05 0 -3.1187662172352444e-05 -3.2172175123954695e-05 0 -3.1921907411071143e-05 -3.3639159186006479e-05 0 -3.0532730881494857e-05 -3.1014497997877241e-05 0 -1.1866758537985941e-05 -2.8083720241952178e-05 0 -1.4608420957701029e-05 -3.2933407789177369e-05 0 -1.3532978737734303e-05 -3.1638427942369161e-05 0 -4.3206290434092933e-05 2.7182425383236219e-05 0 -3.3680021788928588e-05 1.8549895778525607e-05 0 -3.4643136530934751e-05 2.5793576150144383e-05 0 -9.6775173608029961e-06 -1.3833008876146313e-06 0 -7.7169917680775922e-06 -5.6659597876993858e-07 0 -9.4199194860427328e-06 -1.3183076723997621e-06 0 -1.8812305194458182e-06 1.5665025417714941e-06 0 -2.3643064347664105e-06 1.345129161609205e-06 0 -2.7980593535283247e-06 1.781583851126469e-06 0 -6.620320103975833e-05 0.00010652786724209729 0 -5.6647390561006951e-05 8.946603863865338e-05 0 -5.137932630047855e-05 0.00010988647335013827 0 -2.0310676386157834e-05 -4.7567184477948102e-05 0 -1.5261462754608831e-05 -5.2487882082870851e-05 0 -1.3859755969960795e-05 -4.1156729083952726e-05 0 -8.5327732154322631e-07 1.710841328436958e-07 0 -4.3682898141124523e-07 -4.5966105096945771e-09 0 -5.2887501658529599e-07 1.9093353576687352e-07 0 -1.880739972808636e-05 -9.5403089327931063e-06 0 -1.4645677204044023e-05 -7.6685320316309161e-06 0 -1.5486607451272003e-05 -6.442203047117024e-06 0 1.7170934705483443e-05 0.0001005609597727342 0 1.7753937785429953e-05 0.00012353916381747422 0 3.6496760572042894e-06 0.00010835754917277833 0 -3.1898963176227749e-06 -6.8652023655526519e-07 0 -3.3243163075145501e-06 -1.7417353438184006e-07 0 -4.5684492869242523e-06 -4.9046113059724201e-07 0 -9.2391765188952183e-06 -1.1829080999192289e-05 0 -1.1867208059444451e-05 -1.116121258757805e-05 0 -1.1263448749672945e-05 -1.5203198735528258e-05 0 -1.3969661386021375e-05 -1.5291907599999113e-05 0 -1.1263448749672945e-05 -1.5203198735528258e-05 0 -1.1867208059444451e-05 -1.116121258757805e-05 0 -2.861585209373045e-05 -3.009578011970482e-05 0 -2.9501981395377115e-05 -2.9254955680610411e-05 0 -3.0532730881494857e-05 -3.1014497997877241e-05 0 -3.1187662172352444e-05 -3.2172175123954695e-05 0 -3.0532730881494857e-05 -3.1014497997877241e-05 0 -2.9501981395377115e-05 -2.9254955680610411e-05 0 -1.1866758537985941e-05 -2.8083720241952178e-05 0 -1.4119121363157854e-05 -3.0282169272870127e-05 0 -1.4608420957701029e-05 -3.2933407789177369e-05 0 -1.6193383252419908e-05 -3.4419885780519981e-05 0 -1.4608420957701029e-05 -3.2933407789177369e-05 0 -1.4119121363157854e-05 -3.0282169272870127e-05 0 -3.047399653914376e-06 4.7236760255119653e-06 0 -2.5773485038576939e-06 3.5277730664537224e-06 0 -4.0625022452676921e-06 3.3245190469381961e-06 0 -4.7600623812754638e-06 -3.6098173962039369e-06 0 -8.6674036673902688e-06 3.2866089926522657e-07 0 -8.9792546313709725e-06 -7.3230220730504814e-06 0 -1.1956759333467379e-05 -4.7272365556358557e-06 0 -8.9792546313709725e-06 -7.3230220730504823e-06 0 -8.6674036673902688e-06 3.2866089926522657e-07 0 -4.3512408870231237e-05 -4.9970906982517388e-05 0 -5.0500926976377203e-05 -5.2684082854182614e-05 0 -4.8609250791374831e-05 -6.0292522469270381e-05 0 -1.5396165132381015e-05 -4.028386294754004e-06 0 -1.797174561370526e-05 -5.913922997388255e-06 0 -1.4245324864799202e-05 -3.9651167147946726e-06 0 -1.587822665108262e-05 -5.5475803910056732e-06 0 -1.4245324864799202e-05 -3.9651167147946726e-06 0 -1.797174561370526e-05 -5.913922997388255e-06 0 -1.285077318921571e-05 -1.3479383149443226e-05 0 -1.8073024288501106e-05 -1.1143081723468216e-05 0 -1.6788861095940303e-05 -1.0029661150958869e-05 0 -2.7598806989280849e-05 -2.7159600106868599e-05 0 -2.9501981395377115e-05 -2.9254955680610411e-05 0 -2.722224142367264e-05 -2.8376111655735199e-05 0 -1.4517904291844009e-05 -2.8033129439983174e-05 0 -1.6195763892312907e-05 -3.1102812195417815e-05 0 -1.4119121363157854e-05 -3.0282169272870127e-05 0 -3.185860620221362e-06 1.260200762391429e-06 0 -2.7980593535283243e-06 1.781583851126469e-06 0 -2.3643064347664105e-06 1.345129161609205e-06 0 -2.058824632662825e-05 -3.6684540164364142e-05 0 -2.0119329507231533e-05 -3.5079270548620603e-05 0 -2.1835654817552571e-05 -3.4316172821565071e-05 0 -3.001318084967857e-06 9.950380265244399e-07 0 -2.0848824564342734e-06 1.049630440341562e-06 0 -1.9839772627477013e-06 9.6241492151304522e-07 0 -1.8185278594842718e-05 -1.1110838817343988e-05 0 -1.6640770545097343e-05 -8.3814156324609874e-06 0 -1.7943155099765802e-05 -9.2650897453406182e-06 0 -8.5327732154322631e-07 1.710841328436958e-07 0 -1.1423813771525144e-06 4.5661719223614601e-07 0 -1.1765581988060008e-06 4.1011023294145426e-08 0 -3.9501251591869686e-05 0.00012036184407085718 0 -3.2112448358249569e-05 0.00010254865397003299 0 -2.2490418381781392e-05 0.00011677963717816151 0 -4.1063489599576203e-05 0.0001605002640253149 0 -2.3105754940584693e-05 0.00016101547232880056 0 -3.1106249581194047e-05 0.00017562274155836084 0 -3.6298097873529584e-05 -7.519552689879822e-05 0 -4.3900139652094932e-05 -7.5021804129329745e-05 0 -4.1586993542147654e-05 -8.2138463452962644e-05 0 3.2681125072363216e-06 2.168683363733187e-05 0 -4.8361812358190895e-06 7.6587521890540038e-06 0 2.0798934791710074e-06 1.7238542430807666e-06 0 -8.5327732154322631e-07 1.710841328436958e-07 0 -5.2887501658529599e-07 1.9093353576687352e-07 0 -9.2378640819357274e-07 4.2413365080499066e-07 0 -5.9483792033708157e-05 -6.1011282444409504e-05 0 -5.5301827695322929e-05 -6.6344138917151938e-05 0 -4.8609250791374831e-05 -6.0292522469270381e-05 0 -6.4371743064453051e-05 -0.00012313716945674464 0 -5.8069743767632365e-05 -0.00011780442340890937 0 -6.4419123433281575e-05 -0.00011370315652904051 0 8.7590185521119022e-06 0.00025987292221267051 0 -2.5974062383210254e-06 0.00025255145726015444 0 1.0946269337702514e-05 0.00024023689983961372 0 8.7590185521119022e-06 0.00025987292221267051 0 -9.1493545289901004e-06 0.00026424492404428186 0 -2.5974062383210271e-06 0.00025255145726015444 0 -1.5609213958476871e-05 -0.0001203677038983048 0 -1.9996381279837421e-05 -0.00011767639443499679 0 -2.2603581110594693e-05 -0.00012258077232221712 0 -0.00010875355154862784 0.00026618196038886527 0 -0.0001088231449005264 0.00024476811622586858 0 -9.4450168269022433e-05 0.00025406471017729916 0 -6.4371743064453051e-05 -0.00012313716945674464 0 -5.4956733373787005e-05 -0.00012308235159434137 0 -5.8069743767632365e-05 -0.00011780442340890937 0 -1.5609213958476871e-05 -0.0001203677038983048 0 -1.4326075337876227e-05 -0.00011180688795023079 0 -1.9996381279837421e-05 -0.00011767639443499679 0 -0.00010875355154862784 0.00026618196038886527 0 -9.4450168269022433e-05 0.00025406471017729916 0 -8.7358546760907274e-05 0.00026610083521235676 0 -6.5948598173918451e-10 -3.2742160197300459e-11 0 -5.2887501658529599e-07 1.9093353576687352e-07 0 -4.3682898141124523e-07 -4.5966105096945771e-09 0 -2.0981606228789066e-05 -1.7103205326360002e-05 0 -1.9043322999752484e-05 -1.7260112610095711e-05 0 -1.8939830549676109e-05 -1.4009951249791838e-05 0 -1.587822665108262e-05 -5.5475803910056732e-06 0 -1.9029508345855888e-05 -7.7434227686541575e-06 0 -1.5486607451272003e-05 -6.442203047117024e-06 0 -4.3512408870231237e-05 -4.9970906982517388e-05 0 -4.0468021735158167e-05 -5.5786012500030373e-05 0 -3.7061650415599441e-05 -4.9055078035118613e-05 0 -2.3801484858506425e-06 3.1483501106100626e-07 0 -3.8650970467031222e-06 5.9529287626378462e-07 0 -3.3243163075145501e-06 -1.7417353438184006e-07 0 -4.4921251493845713e-05 0.00018884203313728531 0 -5.9512865496023451e-05 0.00020266819955442242 0 -5.9831814431548816e-05 0.00018145559138923488 0 -3.6459936879649352e-05 -8.7960663850211664e-05 0 -3.1246943056124496e-05 -9.433779167236288e-05 0 -2.9909519418367805e-05 -8.4406260455683569e-05 0 -2.9575563677856626e-05 -2.7870377693867775e-05 0 -3.0498025373753664e-05 -3.0266183538867194e-05 0 -2.8967984976794868e-05 -2.7678444168876831e-05 0 -8.7238084456788989e-06 -2.0718859631009592e-05 0 -1.1863786085238702e-05 -2.5285298690699875e-05 0 -1.0396634366154978e-05 -2.447322139456469e-05 0 -7.6104887902765506e-07 -5.6593640957471104e-06 0 -5.4365793185765875e-06 -9.545952638985262e-06 0 -3.2765519125751025e-06 -1.0214507619192366e-05 0 -1.880739972808636e-05 -9.5403089327931063e-06 0 -1.5486607451272003e-05 -6.442203047117024e-06 0 -1.9029508345855888e-05 -7.7434227686541575e-06 0 -2.6874522981712987e-05 -2.1207588030557222e-05 0 -2.8444337056488125e-05 -2.476433901203546e-05 0 -2.6120165614187963e-05 -2.1977060624780535e-05 0 -5.2409247855652629e-06 -1.3810535574870069e-05 0 -8.5751303877967104e-06 -1.7579827711561023e-05 0 -7.0975489734186332e-06 -1.7244743062090651e-05 0 -3.0941975117198922e-05 -4.2339101861827298e-05 0 -2.5825535745687719e-05 -4.5153576478899006e-05 0 -2.5160469154772319e-05 -3.5876134291572769e-05 0 -1.8812305194458182e-06 1.5665025417714941e-06 0 -1.7309706519527788e-06 1.1819956124830458e-06 0 -2.3643064347664105e-06 1.345129161609205e-06 0 -2.3198071885223235e-05 -8.0069385572161528e-05 0 -2.8727371469704905e-05 -7.3406650043850909e-05 0 -2.9909519418367805e-05 -8.4406260455683569e-05 0 -7.513770973399542e-05 0.0001745739934953161 0 -5.8721369614924004e-05 0.0001607192063951394 0 -5.9831814431548816e-05 0.00018145559138923488 0 -1.0983493509702442e-05 -1.8093272035271352e-05 0 -7.7676014342411976e-06 -1.4265684266994832e-05 0 -1.1263448749672945e-05 -1.5203198735528258e-05 0 -9.2391765188952183e-06 -1.1829080999192289e-05 0 -1.1263448749672945e-05 -1.5203198735528256e-05 0 -7.7676014342411976e-06 -1.4265684266994832e-05 0 -4.9859861173971819e-06 3.6952231919564623e-07 0 -4.8822722658379726e-06 4.3189215684080167e-07 0 -6.5002063383821643e-06 -2.1144717074875093e-07 0 -2.0482750474787029e-05 -1.6042381126358405e-05 0 -1.6454667999320584e-05 -1.3518721127547047e-05 0 -1.7500214691577513e-05 -1.1164115797705455e-05 0 -1.8602313630619555e-05 -3.567400373932116e-05 0 -1.3052944078959765e-05 -3.1428523110120933e-05 0 -1.6197173309726631e-05 -2.4108477435830969e-05 0 -1.7441949105061549e-05 -1.3868983682027814e-05 0 -1.8939830549676109e-05 -1.4009951249791838e-05 0 -1.9043322999752484e-05 -1.7260112610095711e-05 0 -9.4536304671310327e-06 -2.5565095743992538e-05 0 -1.3052944078959765e-05 -3.1428523110120933e-05 0 -8.012405227658016e-06 -3.5187015894330659e-05 0 -1.0495621170491346e-05 -2.157571833982847e-05 0 -1.2345584406428333e-05 -2.1133578726509497e-05 0 -1.367008386437375e-05 -2.4993739004517021e-05 0 -1.5028609598029516e-05 -2.3484810089877809e-05 0 -1.367008386437375e-05 -2.4993739004517021e-05 0 -1.2345584406428333e-05 -2.1133578726509497e-05 0 -7.0175659685562531e-06 -5.6537800409906205e-07 0 -9.1489070615522687e-06 -1.5303324833807673e-06 0 -9.4199194860427328e-06 -1.3183076723997621e-06 0 -9.0204193828563082e-06 -2.8542920413179674e-06 0 -1.0600988075813958e-05 -3.9280472013062726e-06 0 -8.5665202555476021e-06 -1.4559941649501744e-06 0 -1.0400928974848005e-05 -2.008888790910168e-06 0 -8.5665202555476021e-06 -1.4559941649501744e-06 0 -1.0600988075813958e-05 -3.9280472013062726e-06 0 -2.4638317972202405e-06 1.171815019448771e-05 0 -5.5154618478641279e-06 9.4159204496848997e-06 0 -2.3749606479540947e-06 1.4948089831226708e-05 0 -6.7156026294964823e-06 7.2544219919449188e-06 0 -2.3749606479540947e-06 1.4948089831226708e-05 0 -5.5154618478641279e-06 9.4159204496848997e-06 0 1.7753937785429949e-05 0.00012353916381747422 0 1.7615348852911422e-05 0.00014692964913973832 0 2.2083216915704346e-07 0.00013737052544273053 0 -4.6252653982177023e-06 6.9891660239855881e-06 0 -2.9802629756453109e-06 6.2831268584751811e-06 0 -4.2996598814997064e-06 5.126721956288286e-06 0 -5.9483792033708157e-05 -6.1011282444409504e-05 0 -6.182450762090379e-05 -7.1778510576880691e-05 0 -5.5301827695322929e-05 -6.6344138917151938e-05 0 -6.3292698982267554e-06 -4.3433285485521063e-08 0 -6.5002063383821643e-06 -2.1144717074875093e-07 0 -4.8822722658379726e-06 4.3189215684080167e-07 0 -8.9699490858581862e-06 -8.0957344904760445e-08 0 -6.9978035830809146e-06 -3.1627754714096155e-07 0 -5.9193458443970231e-06 -7.3112063854108781e-07 0 -7.0175659685562531e-06 -5.6537800409906205e-07 0 -4.808846121742894e-06 3.4024260131019511e-08 0 -5.3499906156408719e-06 -3.6719724394596143e-07 0 -2.983886925705073e-06 1.681270273761594e-06 0 -1.94623380292212e-06 1.3509175910306757e-06 0 -2.2507091522850322e-06 2.6171381776761527e-06 0 -3.8696438968981677e-06 -1.9623031154050302e-06 0 -3.2483647657307477e-06 -9.1144352364401205e-07 0 -1.6308621097699655e-06 -6.2595426699374618e-07 0 -2.442107779865014e-09 2.3491201092066446e-10 0 -1.6308621097699655e-06 -6.2595426699374618e-07 0 -3.2483647657307477e-06 -9.1144352364401205e-07 0 -5.3187258295260634e-06 2.2983190927859829e-06 0 -2.251193211278187e-06 6.4549316167772765e-07 0 -4.5406327257992715e-06 7.5353776094730157e-07 0 -3.4790294545500302e-09 -5.131164446411138e-10 0 -4.5406327257992715e-06 7.5353776094730157e-07 0 -2.251193211278187e-06 6.4549316167772765e-07 0 -2.0482750474787029e-05 -1.6042381126358405e-05 0 -2.5501410508217278e-05 -1.8862664862513358e-05 0 -2.4302165500549041e-05 -2.2528463059824658e-05 0 -8.5327732154322631e-07 1.710841328436958e-07 0 -9.2378640819357274e-07 4.2413365080499066e-07 0 -1.1423813771525144e-06 4.5661719223614601e-07 0 -1.3038380441051688e-05 0.00010098160437694415 0 2.2431015038721142e-06 9.3501067576063599e-05 0 3.6496760572042894e-06 0.00010835754917277833 0 -1.4881446028093764e-05 2.5698208192624907e-05 0 -1.7215083532174122e-05 1.8927147354072016e-05 0 -1.0213205338726332e-05 1.6959660996871446e-05 0 -4.6252653982177023e-06 6.9891660239855881e-06 0 -2.937851092917262e-06 8.6876198557171847e-06 0 -2.9802629756453109e-06 6.2831268584751811e-06 0 -2.1851976990039249e-05 -2.7452344999198891e-05 0 -1.9976902927420406e-05 -1.9750885609836197e-05 0 -2.4302165500549041e-05 -2.2528463059824658e-05 0 -6.6413537752514003e-05 0.00026586063114111407 0 -8.7358546760907274e-05 0.00026610083521235676 0 -7.6770695389201922e-05 0.00025518831283393182 0 -2.9718490210375303e-05 -0.0001230076900593258 0 -2.2603581110594693e-05 -0.00012258077232221712 0 -2.6114536195683771e-05 -0.000118774195701496 0 -9.1493545289901004e-06 0.00026424492404428186 0 -2.7322740437836858e-05 0.00026550959022334972 0 -1.8056496694239494e-05 0.00025517130161236003 0 -5.4956733373787005e-05 -0.00012308235159434137 0 -4.5866733688714205e-05 -0.00012294591456230798 0 -5.0332642433638519e-05 -0.0001182990125836642 0 -2.508522363085942e-05 -2.8265480994410935e-05 0 -2.722224142367264e-05 -2.8376111655735199e-05 0 -2.5934140619234741e-05 -2.9924798495788157e-05 0 -1.7935277509013277e-05 -3.0941804842887487e-05 0 -1.7624973175024113e-05 -3.4051302868005736e-05 0 -1.6195763892312907e-05 -3.1102812195417815e-05 0 -4.450156100264153e-09 -1.9005435623111417e-09 0 -1.6308621097699659e-06 -6.2595426699374629e-07 0 -2.442107779865014e-09 2.3491201092066446e-10 0 -5.8662402303311661e-09 2.4994826438322106e-09 0 -3.4790294545500302e-09 -5.131164446411138e-10 0 -2.251193211278187e-06 6.4549316167772765e-07 0 -5.8662402303311661e-09 2.4994826438322106e-09 0 -2.251193211278187e-06 6.4549316167772765e-07 0 -5.3187258295260634e-06 2.2983190927859829e-06 0 -4.450156100264153e-09 -1.9005435623111417e-09 0 -3.8696438968981677e-06 -1.9623031154050302e-06 0 -1.6308621097699655e-06 -6.2595426699374618e-07 0 -2.0310676386157834e-05 -4.7567184477948102e-05 0 -2.5825535745687716e-05 -4.5153576478899e-05 0 -2.6775991382764148e-05 -5.5290467438985367e-05 0 -8.1821016653987496e-06 -1.199682210781023e-06 0 -1.0240812248103038e-05 -2.3601571517107703e-06 0 -8.9740298848857368e-06 -2.1499832895825922e-06 0 -1.8185278594842718e-05 -1.1110838817343988e-05 0 -1.8939830549676109e-05 -1.4009951249791838e-05 0 -1.7017072290501103e-05 -1.0778688935161644e-05 0 -1.7441949105061549e-05 -1.3868983682027814e-05 0 -1.7017072290501103e-05 -1.0778688935161644e-05 0 -1.8939830549676109e-05 -1.4009951249791838e-05 0 -4.9859861173971819e-06 3.6952231919564623e-07 0 -6.6595852273846229e-06 -5.108284625762911e-07 0 -5.3338589770250371e-06 1.3970413276928545e-07 0 -2.02149011740137e-06 1.1427135168273007e-06 0 -2.0848824564342734e-06 1.049630440341562e-06 0 -2.9597414773286058e-06 1.1135259825876882e-06 0 -3.001318084967857e-06 9.950380265244399e-07 0 -2.9597414773286058e-06 1.1135259825876882e-06 0 -2.0848824564342734e-06 1.049630440341562e-06 0 -6.7156026294964823e-06 7.2544219919449188e-06 0 -4.8361812358190895e-06 7.6587521890540038e-06 0 -2.3749606479540947e-06 1.4948089831226708e-05 0 3.2681125072363216e-06 2.168683363733187e-05 0 -2.3749606479540939e-06 1.4948089831226709e-05 0 -4.8361812358190895e-06 7.6587521890540038e-06 0 -2.9287808919931421e-05 -2.2974606348408394e-05 0 -2.4302165500549041e-05 -2.2528463059824658e-05 0 -2.5501410508217278e-05 -1.8862664862513358e-05 0 -1.0983493509702442e-05 -1.8093272035271352e-05 0 -1.2345584406428333e-05 -2.1133578726509497e-05 0 -8.5751303877967104e-06 -1.7579827711561023e-05 0 -2.4350008859760079e-05 -2.0065673452900558e-05 0 -2.6120165614187963e-05 -2.1977060624780535e-05 0 -2.5141814645140658e-05 -2.2145613215727385e-05 0 -3.185860620221362e-06 1.260200762391429e-06 0 -3.7087511280650789e-06 1.4344237917693888e-06 0 -2.7980593535283247e-06 1.781583851126469e-06 0 -1.4983487750204575e-05 0.00017573461555138082 0 2.7436813238706332e-06 0.00016624245626999839 0 7.0227941648067226e-07 0.00018235638854557633 0 -4.8757666071637259e-05 -8.2628016108702353e-05 0 -5.6366053507795439e-05 -7.8966257006294341e-05 0 -5.643553303533037e-05 -8.6549135449899263e-05 0 -1.285077318921571e-05 -1.3479383149443226e-05 0 -1.2397309389559511e-05 -9.8343397442412301e-06 0 -1.3130966269144199e-05 -1.1303371894595152e-05 0 -9.2391765188952183e-06 -1.1829080999192289e-05 0 -5.4365793185765875e-06 -9.545952638985262e-06 0 -8.9792546313709725e-06 -7.3230220730504814e-06 0 -7.513770973399542e-05 0.0001745739934953161 0 -8.7989562018289221e-05 0.00016240301248401985 0 -7.2435982259431853e-05 0.00015540347325959357 0 -2.3198071885223235e-05 -8.0069385572161528e-05 0 -1.6859064625543302e-05 -7.31545925369575e-05 0 -2.2615013076173593e-05 -7.0702233509488738e-05 0 -2.0310676386157834e-05 -4.7567184477948102e-05 0 -2.1320170015769027e-05 -5.6417746729546936e-05 0 -1.5261462754608831e-05 -5.2487882082870851e-05 0 -2.3866030306057768e-05 -2.6039416153310586e-05 0 -2.330908267695148e-05 -2.7799996971874881e-05 0 -2.1867323173706043e-05 -2.5962731333574564e-05 0 -1.4517904291844009e-05 -2.8033129439983174e-05 0 -1.1863786085238701e-05 -2.5285298690699875e-05 0 -1.367008386437375e-05 -2.4993739004517021e-05 0 -6.4603169075566e-06 2.6331953012858895e-06 0 -4.9345759837152176e-06 1.4236318524619124e-06 0 -4.2748490747015441e-06 3.0475394482375771e-06 0 -2.1311857966843387e-05 -3.2396401367890556e-05 0 -1.96025872333968e-05 -3.2979534418695133e-05 0 -2.0170416620729779e-05 -3.0117501766957099e-05 0 -6.3292698982267554e-06 -4.3433285485521063e-08 0 -4.8822722658379726e-06 4.3189215684080167e-07 0 -4.8603648788312052e-06 3.919426675959441e-07 0 -3.7236185078042613e-06 6.7798894697113496e-07 0 -4.8603648788312052e-06 3.919426675959441e-07 0 -4.8822722658379726e-06 4.3189215684080167e-07 0 -6.3415397730147311e-06 4.0681407128064316e-07 0 -7.5418502033632251e-06 -1.1944276471426187e-06 0 -8.5665202555476021e-06 -1.4559941649501744e-06 0 -2.0482750474787029e-05 -1.6042381126358405e-05 0 -2.4302165500549041e-05 -2.2528463059824658e-05 0 -1.9976902927420406e-05 -1.9750885609836197e-05 0 -4.9859861173971819e-06 3.6952231919564623e-07 0 -5.3338589770250371e-06 1.3970413276928545e-07 0 -3.9584608370659851e-06 7.0737604808354448e-07 0 -4.4614592531279679e-06 5.542128056847896e-07 0 -3.9584608370659851e-06 7.0737604808354448e-07 0 -5.3338589770250371e-06 1.3970413276928545e-07 0 -6.6595852273846229e-06 -5.108284625762911e-07 0 -5.9893739414239951e-06 -3.1657827123580325e-07 0 -5.3338589770250371e-06 1.3970413276928545e-07 0 -2.4111494198257573e-05 -3.1966594556872409e-05 0 -2.5934140619234741e-05 -2.9924798495788157e-05 0 -2.6827597653749321e-05 -3.1883159674053872e-05 0 -2.861585209373045e-05 -3.009578011970482e-05 0 -2.6827597653749318e-05 -3.1883159674053872e-05 0 -2.5934140619234741e-05 -2.9924798495788157e-05 0 -1.6193383252419908e-05 -3.4419885780519981e-05 0 -1.7624973175024113e-05 -3.4051302868005736e-05 0 -1.7359745542739111e-05 -3.7217883330322001e-05 0 -1.8664876822926849e-05 -3.5237738132083438e-05 0 -1.7359745542739111e-05 -3.7217883330322001e-05 0 -1.7624973175024113e-05 -3.4051302868005736e-05 0 -6.7156026294964823e-06 7.2544219919449188e-06 0 -8.6674036673902688e-06 3.2866089926522651e-07 0 -4.8361812358190895e-06 7.6587521890540038e-06 0 -1.0687317469991032e-05 0.00024201358871985405 0 -1.8056496694239494e-05 0.00025517130161236003 0 -2.8827442326538543e-05 0.00024706129655074715 0 -5.3760849769828065e-05 -0.00011253218467604967 0 -5.0332642433638519e-05 -0.0001182990125836642 0 -4.5111361053912302e-05 -0.00011458785925884961 0 -2.3165227864728513e-05 -0.00011295570625828878 0 -3.0372095744787044e-05 -0.00011514193771742945 0 -2.6114536195683771e-05 -0.000118774195701496 0 -8.4705326352317603e-05 0.0002421550736439147 0 -6.4645578325811694e-05 0.00024663957913490295 0 -7.6770695389201922e-05 0.00025518831283393182 0 -7.513770973399542e-05 0.0001745739934953161 0 -7.2435982259431853e-05 0.00015540347325959357 0 -5.8721369614924004e-05 0.0001607192063951394 0 -2.3198071885223235e-05 -8.0069385572161528e-05 0 -2.2615013076173593e-05 -7.0702233509488738e-05 0 -2.8727371469704905e-05 -7.3406650043850909e-05 0 -2.0310676386157834e-05 -4.7567184477948102e-05 0 -2.6775991382764148e-05 -5.5290467438985367e-05 0 -2.132017001576903e-05 -5.6417746729546936e-05 0 -9.0204193828563082e-06 -2.8542920413179674e-06 0 -8.5665202555476021e-06 -1.4559941649501744e-06 0 -7.5418502033632251e-06 -1.1944276471426187e-06 0 -2.7322740437836858e-05 0.00026550959022334972 0 -2.8827442326538543e-05 0.00024706129655074715 0 -1.8056496694239494e-05 0.00025517130161236003 0 -4.5866733688714205e-05 -0.00012294591456230798 0 -4.5111361053912302e-05 -0.00011458785925884961 0 -5.0332642433638519e-05 -0.0001182990125836642 0 -6.6413537752514003e-05 0.00026586063114111407 0 -7.6770695389201922e-05 0.00025518831283393182 0 -6.4645578325811694e-05 0.00024663957913490295 0 -2.9718490210375303e-05 -0.0001230076900593258 0 -2.6114536195683771e-05 -0.00011877419570149601 0 -3.0372095744787044e-05 -0.00011514193771742945 0 -2.1673508351880509e-05 -2.8166387393254036e-05 0 -2.1867323173706043e-05 -2.5962731333574564e-05 0 -2.330908267695148e-05 -2.7799996971874881e-05 0 -9.4536304671310327e-06 -2.5565095743992538e-05 0 -1.6197173309726631e-05 -2.4108477435830969e-05 0 -1.3052944078959765e-05 -3.1428523110120933e-05 0 -3.1921907411071143e-05 -3.3639159186006479e-05 0 -3.0444927714776241e-05 -3.1742339185856514e-05 0 -3.0532730881494857e-05 -3.1014497997877241e-05 0 -1.3532978737734303e-05 -3.1638427942369161e-05 0 -1.4608420957701029e-05 -3.2933407789177369e-05 0 -1.5857763462026232e-05 -3.6241737867661395e-05 0 -2.02149011740137e-06 1.1427135168273007e-06 0 -1.4623404850696998e-06 8.8493032398974876e-07 0 -2.0848824564342734e-06 1.049630440341562e-06 0 -8.1538111355291786e-05 0.00014022776079521349 0 -8.2460702897489054e-05 0.00011907056547410825 0 -6.7996415594511392e-05 0.00012285839586669497 0 -6.620320103975833e-05 0.00010652786724209729 0 -6.7996415594511392e-05 0.00012285839586669497 0 -8.2460702897489054e-05 0.00011907056547410825 0 -2.005569431163041e-05 -2.3747576712621945e-05 0 -2.2153501986130834e-05 -2.3647911074059971e-05 0 -2.1867323173706043e-05 -2.5962731333574564e-05 0 -5.6289205105085455e-06 -1.0771705267587483e-08 0 -5.9893739414239951e-06 -3.1657827123580325e-07 0 -6.9118166054333671e-06 -1.1075997991935602e-06 0 -1.8185278594842718e-05 -1.1110838817343988e-05 0 -1.7017072290501103e-05 -1.0778688935161644e-05 0 -1.6640770545097343e-05 -8.3814156324609874e-06 0 -1.5316429982511531e-05 -7.1059185738005193e-06 0 -1.6640770545097343e-05 -8.3814156324609874e-06 0 -1.7017072290501103e-05 -1.0778688935161644e-05 0 -5.9150525609863848e-05 0.00013938446165752833 0 -5.8721369614924004e-05 0.0001607192063951394 0 -7.2435982259431853e-05 0.00015540347325959357 0 -2.6321723406895545e-05 -6.3851040552102199e-05 0 -2.8727371469704905e-05 -7.3406650043850909e-05 0 -2.2615013076173593e-05 -7.0702233509488738e-05 0 -2.6321723406895545e-05 -6.3851040552102199e-05 0 -2.132017001576903e-05 -5.6417746729546936e-05 0 -2.6775991382764148e-05 -5.5290467438985367e-05 0 -4.6500984060988937e-06 -6.8802550863658212e-07 0 -7.0669534905511871e-06 -1.1099657383370251e-06 0 -5.3499906156408719e-06 -3.6719724394596143e-07 0 -6.3544919496627883e-06 1.867090114165371e-07 0 -6.9978035830809146e-06 -3.1627754714096155e-07 0 -9.6885761484059593e-06 5.5190442942748433e-07 0 -1.3154311128226338e-05 1.8659779688421457e-06 0 -9.6885761484059593e-06 5.5190442942748433e-07 0 -1.2427807859606588e-05 1.0613417399698868e-06 0 -9.2937672789428052e-06 -2.1168326145411437e-06 0 -9.1489070615522687e-06 -1.5303324833807673e-06 0 -7.0669534905511863e-06 -1.1099657383370249e-06 0 -7.6646050457777904e-06 -1.7408856461347095e-06 0 -7.5418502033632251e-06 -1.1944276471426187e-06 0 -6.344883756152028e-06 -3.2765170014810802e-07 0 -8.1538111355291786e-05 0.00014022776079521349 0 -7.2435982259431853e-05 0.00015540347325959357 0 -8.7989562018289221e-05 0.00016240301248401985 0 -1.765188128859738e-05 -6.2902186272360982e-05 0 -2.2615013076173593e-05 -7.0702233509488738e-05 0 -1.6859064625543302e-05 -7.31545925369575e-05 0 -1.765188128859738e-05 -6.2902186272360982e-05 0 -1.5261462754608831e-05 -5.2487882082870851e-05 0 -2.132017001576903e-05 -5.6417746729546936e-05 0 -3.0941975117198922e-05 -4.2339101861827298e-05 0 -3.7075514627254826e-05 -4.2385583453617446e-05 0 -3.7061650415599441e-05 -4.9055078035118613e-05 0 -2.3866030306057768e-05 -2.6039416153310586e-05 0 -2.1867323173706043e-05 -2.5962731333574564e-05 0 -2.2153501986130834e-05 -2.3647911074059971e-05 0 -6.4603169075566e-06 2.6331953012858895e-06 0 -6.6885815631120327e-06 4.7192042403413015e-06 0 -9.4453335651694385e-06 3.7213009773136918e-06 0 -9.7184412855812532e-06 -4.358526886077131e-06 0 -8.3659942293445681e-06 -2.501325459677148e-06 0 -9.6590677032422995e-06 -3.4855848380641593e-06 0 -7.0175659685562531e-06 -5.6537800409906205e-07 0 -9.4199194860427345e-06 -1.3183076723997623e-06 0 -7.7169917680775922e-06 -5.6659597876993858e-07 0 -5.9417502310871504e-05 7.2151882902087047e-05 0 -4.8346038463334928e-05 7.3426724988558727e-05 0 -5.6647390561006951e-05 8.946603863865338e-05 0 -3.8539826911515666e-05 -3.4775443057251394e-05 0 -3.7075514627254826e-05 -4.2385583453617446e-05 0 -3.3739370610848749e-05 -3.5517950294833505e-05 0 -1.4983487750204575e-05 0.00017573461555138082 0 -3.1106249581194047e-05 0.00017562274155836084 0 -2.3105754940584693e-05 0.00016101547232880059 0 -4.8757666071637259e-05 -8.2628016108702353e-05 0 -4.1586993542147654e-05 -8.2138463452962644e-05 0 -4.3900139652094932e-05 -7.5021804129329745e-05 0 -1.3038380441051688e-05 0.00010098160437694415 0 -2.2490418381781392e-05 0.00011677963717816151 0 -3.2112448358249569e-05 0.00010254865397003299 0 -1.1189664029117907e-05 -2.3851038404121211e-06 0 -1.2359101986912872e-05 -2.6822440652553664e-06 0 -1.4245324864799202e-05 -3.9651167147946726e-06 0 -7.7199355707670845e-06 -1.6149881318990516e-06 0 -6.9118166054333671e-06 -1.1075997991935602e-06 0 -5.9893739414239951e-06 -3.1657827123580325e-07 0 -3.3575304218484547e-05 -5.5264031537568955e-05 0 -3.7061650415599441e-05 -4.9055078035118613e-05 0 -4.0468021735158167e-05 -5.5786012500030373e-05 0 -2.861585209373045e-05 -3.009578011970482e-05 0 -3.0532730881494857e-05 -3.1014497997877241e-05 0 -3.0444927714776241e-05 -3.1742339185856514e-05 0 -1.6193383252419908e-05 -3.4419885780519981e-05 0 -1.5857763462026232e-05 -3.6241737867661395e-05 0 -1.4608420957701029e-05 -3.2933407789177369e-05 0 -4.4614592531279679e-06 5.542128056847896e-07 0 -5.3338589770250371e-06 1.3970413276928545e-07 0 -5.9893739414239951e-06 -3.1657827123580325e-07 0 -8.7358546760907274e-05 0.00026610083521235676 0 -9.4450168269022433e-05 0.00025406471017729916 0 -7.6770695389201922e-05 0.00025518831283393182 0 -8.4705326352317603e-05 0.0002421550736439147 0 -7.6770695389201922e-05 0.00025518831283393182 0 -9.4450168269022433e-05 0.00025406471017729916 0 -2.3165227864728513e-05 -0.00011295570625828878 0 -2.6114536195683771e-05 -0.000118774195701496 0 -1.9996381279837421e-05 -0.00011767639443499679 0 -2.2603581110594693e-05 -0.00012258077232221712 0 -1.9996381279837421e-05 -0.00011767639443499679 0 -2.6114536195683771e-05 -0.000118774195701496 0 -9.1493545289901004e-06 0.00026424492404428186 0 -1.8056496694239494e-05 0.00025517130161236003 0 -2.5974062383210271e-06 0.00025255145726015444 0 -5.4956733373787005e-05 -0.00012308235159434137 0 -5.0332642433638519e-05 -0.0001182990125836642 0 -5.8069743767632365e-05 -0.00011780442340890937 0 -1.0687317469991032e-05 0.00024201358871985405 0 -2.5974062383210271e-06 0.00025255145726015444 0 -1.8056496694239494e-05 0.00025517130161236003 0 -5.3760849769828065e-05 -0.00011253218467604967 0 -5.8069743767632365e-05 -0.00011780442340890937 0 -5.0332642433638519e-05 -0.0001182990125836642 0 -2.005569431163041e-05 -2.3747576712621945e-05 0 -2.1867323173706043e-05 -2.5962731333574564e-05 0 -2.0012529906829639e-05 -2.6365329508273669e-05 0 -2.4404744391486222e-05 -2.3366229733077498e-05 0 -2.3182832777021912e-05 -2.0234035657126729e-05 0 -2.5141814645140658e-05 -2.2145613215727385e-05 0 -2.4350008859760079e-05 -2.0065673452900558e-05 0 -2.5141814645140658e-05 -2.2145613215727385e-05 0 -2.3182832777021912e-05 -2.0234035657126729e-05 0 -2.1673508351880509e-05 -2.8166387393254036e-05 0 -2.330908267695148e-05 -2.7799996971874881e-05 0 -2.3174762805228168e-05 -2.986683664590954e-05 0 -2.508522363085942e-05 -2.8265480994410935e-05 0 -2.3174762805228168e-05 -2.986683664590954e-05 0 -2.330908267695148e-05 -2.7799996971874881e-05 0 -2.4638317972202405e-06 1.171815019448771e-05 0 -4.4819261203868121e-06 8.7123502505085793e-06 0 -5.5154618478641279e-06 9.4159204496848997e-06 0 -1.0449341071053839e-05 7.0557582570913253e-06 0 -1.5581970528177693e-05 9.8514885848048225e-06 0 -1.3938380523397366e-05 5.7813687595539817e-06 0 -1.9648208396296993e-05 8.4743609694437672e-06 0 -1.3938380523397366e-05 5.7813687595539817e-06 0 -1.5581970528177693e-05 9.8514885848048225e-06 0 -1.1189664029117907e-05 -2.3851038404121211e-06 0 -1.3008604584113787e-05 -4.0686015161113945e-06 0 -1.0240812248103038e-05 -2.3601571517107703e-06 0 -5.9417502310871504e-05 7.2151882902087047e-05 0 -4.7913071026655694e-05 5.9606251525530911e-05 0 -4.8346038463334928e-05 7.3426724988558727e-05 0 -3.6508101737453975e-05 6.1834132473056509e-05 0 -4.8346038463334928e-05 7.3426724988558727e-05 0 -4.7913071026655694e-05 5.9606251525530911e-05 0 -4.6252653982177023e-06 6.9891660239855881e-06 0 -4.4819261203868121e-06 8.7123502505085793e-06 0 -2.937851092917262e-06 8.6876198557171847e-06 0 -1.5028609598029516e-05 -2.3484810089877809e-05 0 -1.6056391009937346e-05 -2.7037792571179279e-05 0 -1.367008386437375e-05 -2.4993739004517021e-05 0 -1.4517904291844009e-05 -2.8033129439983174e-05 0 -1.367008386437375e-05 -2.4993739004517021e-05 0 -1.6056391009937346e-05 -2.7037792571179279e-05 0 -2.3619897218106206e-06 7.4285678139289202e-06 0 -2.937851092917262e-06 8.6876198557171847e-06 0 -2.11677478643288e-06 1.0334024682208937e-05 0 -2.8308278255604614e-05 -3.0409915892732536e-05 0 -3.3247222501027181e-05 -2.9559452663223741e-05 0 -3.3739370610848749e-05 -3.5517950294833505e-05 0 -3.8539826911515666e-05 -3.4775443057251394e-05 0 -3.3739370610848749e-05 -3.5517950294833505e-05 0 -3.3247222501027181e-05 -2.9559452663223741e-05 0 -3.047399653914376e-06 4.7236760255119653e-06 0 -4.2996598814997064e-06 5.126721956288286e-06 0 -2.9802629756453109e-06 6.2831268584751811e-06 0 -2.3619897218106206e-06 7.4285678139289202e-06 0 -2.9802629756453109e-06 6.2831268584751811e-06 0 -2.937851092917262e-06 8.6876198557171847e-06 0 -2.4350008859760079e-05 -2.0065673452900558e-05 0 -2.464487437728733e-05 -1.8938711595380362e-05 0 -2.6120165614187963e-05 -2.1977060624780535e-05 0 -7.7199355707670845e-06 -1.6149881318990516e-06 0 -8.3659942293445681e-06 -2.501325459677148e-06 0 -6.9118166054333671e-06 -1.1075997991935602e-06 0 -7.6646050457777904e-06 -1.7408856461347095e-06 0 -6.9118166054333671e-06 -1.1075997991935602e-06 0 -8.3659942293445681e-06 -2.501325459677148e-06 0 -6.3415397730147311e-06 4.0681407128064316e-07 0 -6.344883756152028e-06 -3.2765170014810802e-07 0 -7.5418502033632251e-06 -1.1944276471426187e-06 0 1.6819160457905012e-05 0.00017043704492916012 0 7.0227941648067205e-07 0.00018235638854557633 0 2.7436813238706332e-06 0.00016624245626999839 0 -6.3354806126526416e-05 -8.2760909952496695e-05 0 -5.643553303533037e-05 -8.654913544989925e-05 0 -5.6366053507795439e-05 -7.8966257006294341e-05 0 -1.5396165132381015e-05 -4.028386294754004e-06 0 -1.4245324864799202e-05 -3.9651167147946726e-06 0 -1.2359101986912872e-05 -2.6822440652553669e-06 0 -7.3574999504619054e-10 1.9239768714216535e-10 0 -5.5776088064493602e-07 4.0293949902634221e-07 0 -4.6669331403821178e-07 3.2800131246456122e-07 0 1.7170934705483443e-05 0.0001005609597727342 0 3.6496760572042894e-06 0.00010835754917277833 0 2.2431015038721147e-06 9.3501067576063599e-05 0 -2.1673508351880509e-05 -2.8166387393254036e-05 0 -2.0012529906829639e-05 -2.6365329508273669e-05 0 -2.1867323173706043e-05 -2.5962731333574564e-05 0 -1.2326495887775382e-05 3.0688025741752676e-06 0 -1.3938380523397366e-05 5.7813687595539808e-06 0 -1.7430796479038292e-05 5.2784860426092576e-06 0 -1.9648208396296993e-05 8.4743609694437672e-06 0 -1.7430796479038289e-05 5.2784860426092576e-06 0 -1.3938380523397366e-05 5.7813687595539817e-06 0 -2.6874522981712987e-05 -2.1207588030557222e-05 0 -2.6120165614187963e-05 -2.1977060624780535e-05 0 -2.464487437728733e-05 -1.8938711595380362e-05 0 
</DataArray>
</PointData>
<CellData Scalars="region_id,cross_section_updated,displacement_divergence," Vectors="" Tensors="stress,">
<DataArray type="Float64" Name="region_id" format="ascii">
2 2 2 2 2 2 2 2 2 2 3 3 3 3 3 3 3 3 3 3 1 1 1 1 1 1 1 1 1 1 1 1 1 1 1 1 1 1 1 1 1 1 1 1 1 1 1 1 1 1 1 1 1 1 1 1 1 1 1 1 1 1 1 1 1 1 1 1 1 1 1 1 1 1 1 1 1 1 1 1 1 1 1 1 1 1 1 1 1 1 1 1 1 1 1 1 1 1 1 1 1 1 1 1 1 1 1 1 1 1 1 1 1 1 1 1 1 1 1 1 1 1 1 1 1 1 1 1 1 1 1 1 1 1 1 1 1 1 1 1 1 1 1 1 1 1 1 1 1 1 1 1 1 1 1 1 1 1 1 1 1 1 1 1 1 1 1 1 1 1 1 1 1 1 1 1 1 1 1 1 1 1 1 1 1 1 1 1 1 1 1 1 1 1 1 1 1 1 1 1 1 1 1 1 1 1 1 1 1 1 1 1 1 1 1 1 1 1 1 1 1 1 1 1 1 1 1 1 1 1 1 1 1 1 1 1 1 1 1 1 1 1 1 1 1 1 1 1 1 1 1 1 1 1 1 1 1 1 1 1 1 1 1 1 1 1 1 1 1 1 1 1 1 1 1 1 1 1 1 1 1 1 1 1 1 1 1 1 1 1 1 1 1 1 1 1 1 1 1 1 1 1 1 1 1 1 1 1 1 1 1 1 1 1 1 1 1 1 1 1 1 1 1 1 1 1 1 1 1 1 1 1 1 1 1 1 1 1 1 1 1 1 1 1 1 1 1 1 1 1 1 1 1 1 1 1 1 1 1 1 1 1 1 1 1 1 1 1 1 1 1 1 1 1 1 1 1 1 1 1 1 1 1 1 1 1 1 1 1 1 1 1 1 1 1 1 1 1 1 1 1 1 1 1 1 1 1 1 1 1 1 1 1 1 1 1 1 1 1 1 1 1 1 1 1 1 1 1 1 1 1 1 1 1 1 1 1 1 1 1 1 1 1 1 1 1 1 1 1 1 1 1 1 1 1 1 1 1 1 1 1 1 1 1 1 1 1 1 1 1 1 1 1 1 1 1 1 1 1 1 1 1 1 1 1 1 1 1 1 1 1 1 1 1 1 1 1 1 1 1 1 1 1 1 1 1 1 1 1 1 1 1 1 1 1 1 1 1 1 1 1 1 1 1 1 1 1 1 1 1 1 1 1 1 1 1 1 1 1 1 1 1 1 1 1 1 1 1 1 1 1 1 1 1 1 1 1 1 1 1 1 1 1 1 1 1 1 1 1 1 1 1 1 1 1 1 1 1 1 1 1 1 1 1 1 1 1 1 1 1 1 1 1 1 1 1 1 1 1 1 1 1 1 1 1 1 1 1 1 1 1 1 1 1 1 1 1 1 1 1 1 1 1 1 1 1 1 1 1 1 1 1 1 1 1 1 1 1 1 1 1 1 1 1 1 1 1 1 1 1 1 1 1 1 1 1 1 1 1 1 1 1 1 1 1 1 1 1 1 1 1 1 1 1 1 1 1 1 1 1 1 1 1 1 1 1 1 1 1 1 1 1 1 1 1 1 1 1 1 1 1 1 1 1 1 1 1 1 1 1 1 1 1 1 1 1 1 1 1 1 1 1 1 1 1 1 1 1 1 1 1 1 1 1 1 1 1 1 1 1 1 1 1 1 1 1 1 1 1 1 1 1 1 1 1 1 1 1 1 1 1 1 1 1 1 1 1 1 1 1 1 1 1 1 1 1 1 1 1 1 1 1 1 1 1 1 1 1 1 1 1 1 1 1 1 1 1 1 1 1 1 1 1 1 1 1 1 1 1 1 1 1 1 1 1 1 1 1 1 1 1 1 1 1 1 1 1 1 1 1 1 1 1 1 1 1 1 1 1 1 1 1 1 1 1 1 1 1 1 1 1 1 1 1 1 1 1 1 1 1 1 1 1 1 1 1 1 1 1 1 1 1 1 1 1 1 1 1 1 1 1 1 1 1 1 1 1 1 1 1 1 1 1 1 1 1 1 1 1 1 1 1 1 1 1 1 1 1 1 1 1 1 1 1 1 1 1 1 1 1 1 1 1 1 1 1 1 1 1 1 1 1 1 1 1 1 1 1 1 1 1 1 1 1 1 1 1 1 1 1 1 1 1 1 1 1 1 1 1 1 1 1 1 1 1 1 1 1 1 1 1 1 1 1 1 1 1 1 1 1 1 1 1 1 1 1 1 1 1 1 1 1 1 1 1 1 1 1 1 1 1 1 1 1 1 1 1 1 1 1 1 1 1 1 1 1 1 1 1 1 1 1 1 1 1 1 1 1 1 1 1 1 1 1 1 1 1 1 1 1 1 1 1 1 1 1 1 1 1 1 1 1 1 1 
</DataArray>
<DataArray type="Float64" Name="stress" NumberOfComponents="9" format="ascii">
0.0028607243890278857 -0.0017647570570644804 0 -0.0017647570570644804 0.0086453156072889351 0 0 0 0.0028765099990792054 0.0071463080652587885 -0.0045072778410487849 0 -0.0045072778410487849 0.021513403998126967 0 0 0 0.0071649280158464388 0.0098574908191516892 -0.0061773735800318601 0 -0.0061773735800318601 0.029659780875468316 0 0 0 0.0098793179236550017 0.012495428275529184 -0.0072195123950970002 0 -0.0072195123950970002 0.037567614355564119 0 0 0 0.012515760657773326 0.015308531944799829 -0.0077912098056382951 0 -0.0077912098056382951 0.045998846652582463 0 0 0 0.015326844649345571 0.018438680780408785 -0.0079976051726772801 0 -0.0079976051726772801 0.055387796342133089 0 0 0 0.018456619280635467 0.021931737076903428 -0.0079060941168428763 0 -0.0079060941168428763 0.06587405468977918 0 0 0 0.021951447941670657 0.025562108822761841 -0.0076306658094603417 0 -0.0076306658094603417 0.076770357688045396 0 0 0 0.025583116627701807 0.029300932684712722 -0.0072641839929844859 0 -0.0072641839929844859 0.087956260223215954 0 0 0 0.029314298226982172 0.032620964613404087 -0.0069232740908440346 0 -0.0069232740908440346 0.098045315329347127 0 0 0 0.032666569985687809 0.0053383998352534139 0.0011087093486262904 0 0.0011087093486262904 0.015793691487329044 0 0 0 0.005283022830645614 0.01362649816614692 0.002683470544664686 0 0.002683470544664686 0.040900108771235573 0 0 0 0.013631651734345622 0.019443486083700171 0.0037473910330887506 0 0.0037473910330887506 0.0583650045060225 0 0 0 0.019452122647430667 0.024791457089928543 0.0044159577898916433 0 0.0044159577898916433 0.074430530172448425 0 0 0 0.024805496815594238 0.030124173084032452 0.0048516836653760432 0 0.0048516836653760432 0.090447815453123678 0 0 0 0.030142997134289033 0.035497387049124959 0.0051099871969275679 0 0.0051099871969275679 0.10658720815290797 0 0 0 0.035521148800508232 0.040969093457763874 0.0051839266478360645 0 0.0051839266478360645 0.12301564105329832 0 0 0 0.040996183627765553 0.046333758437261237 0.0051637795499466337 0 0.0051637795499466337 0.13918811385861349 0 0 0 0.046380468073968686 0.051720525212476567 0.0050062586149743297 0 0.0050062586149743297 0.15509942150754891 0 0 0 0.051704986680006379 0.056302031150151165 0.004894614445387864 0 0.004894614445387864 0.16985738291954516 0 0 0 0.056539853517424084 -0.030703630984996989 -0.0092256985401838621 0 -0.0092256985401838621 0.016958750178597021 0 0 0 -0.0034362202016000043 -0.027235202593334333 -0.0094630527875206628 0 -0.0094630527875206628 0.03063903207447953 0 0 0 0.00085095737028629409 -0.046148056878161009 -0.0076089757631697952 0 -0.0076089757631697952 0.026404381817748124 0 0 0 -0.0049359187651032282 -0.045958705230501107 3.6268529772204294e-05 0 3.6268529772204294e-05 0.028002345037257789 0 0 0 -0.0044890900483108027 -0.10332067810706456 -0.0044092141332493801 0 -0.0044092141332493801 0.0017246502969286079 0 0 0 -0.025399006952533984 -0.072669031612878257 0.00094417762913372606 0 0.00094417762913372606 0.00026853602451525245 0 0 0 -0.018100123897090759 -0.10900542872262377 -0.0023535931966210469 0 -0.0023535931966210469 -0.00096141248560703118 0 0 0 -0.027491710302057711 -0.075120312406483841 0.00013547014786552815 0 0.00013547014786552815 -0.00059395750171790246 0 0 0 -0.018928567477050434 -0.092074643628247965 0.0029995109524473262 0 0.0029995109524473262 -0.00038267123221545629 0 0 0 -0.023114328715115852 -0.15967368152350109 -0.0081441796618434877 0 -0.0081441796618434877 -0.00052464734502927213 0 0 0 -0.040049582217132604 -0.0084950209672442697 0.0025238646221438909 0 0.0025238646221438909 -0.011778333644556715 0 0 0 -0.0050683386529502446 -0.011782474472760335 0.0029980738686942311 0 0.0029980738686942311 -0.0093170579473141196 0 0 0 -0.005274883105018612 -0.033604132394910897 0.0037569928554140406 0 0.0037569928554140406 -0.0056190047017883327 0 0 0 -0.0098057842741747989 -0.032781742149077628 -0.006113715290084417 0 -0.006113715290084417 -0.01093065744102166 0 0 0 -0.010928099897524822 -0.034402310900726922 0.0047574957168214091 0 0.0047574957168214091 -0.01146768106021467 0 0 0 -0.011467497990235396 -0.045218951059525989 -0.012670008629533019 0 -0.012670008629533019 0.01740129961842149 0 0 0 -0.0069544128602761351 0.11216932172630256 0.083358047766080995 0 0.083358047766080995 0.16454909056687556 0 0 0 0.069179603073294571 -0.0019662027215510136 -0.010083734941762956 0 -0.010083734941762956 -0.010270478316518172 0 0 0 -0.0030591702595174075 0.00058372510488791107 0.0060699539843489525 0 0.0060699539843489525 -0.0023162721079144077 0 0 0 -0.00043313675075684621 -0.0013953888831483852 0.012676279714069984 0 0.012676279714069984 -0.0082536140721716222 0 0 0 -0.0024122507388297798 0.00049019671097327855 -0.0051229209081880937 0 -0.0051229209081880937 -0.0029012800191785537 0 0 0 -0.00060277082705140206 -0.0085883993080269061 0.020398260539711277 0 0.020398260539711277 -0.0057877813668611999 0 0 0 -0.003594045168721971 -0.0087828424140848904 -0.020896919234387967 0 -0.020896919234387967 -0.00800518182741905 0 0 0 -0.0041970060603758741 -0.030030693729853567 0.0056426412667621717 0 0.0056426412667621717 -0.006134257296167134 0 0 0 -0.0090412377565051751 0.12215583245218391 -0.0048886074255803658 0 -0.0048886074255803658 0.099660083123297993 0 0 0 0.055453978893870451 -0.1835509960733126 0.010539945689187147 0 0.010539945689187147 0.0055581854658792729 0 0 0 -0.044498202651858332 -0.099903929677543871 -0.0039436502121102208 0 -0.0039436502121102208 0.0021787040496836774 0 0 0 -0.024431306406965086 -0.07295159956370792 -0.015781806033924227 0 -0.015781806033924227 0.012709301256993322 0 0 0 -0.015060574576678656 -0.083697428546686214 0.016268940606546347 0 0.016268940606546347 0.048295706935121863 0 0 0 -0.0088504304028910741 -0.090692403203306099 -0.017639229885571636 0 -0.017639229885571636 0.0070288397494318866 0 0 0 -0.020915890863468553 -0.03583414030306984 -0.014252021017814542 0 -0.014252021017814542 0.038456558585892087 0 0 0 0.00065560457070556674 -0.022441485664623645 -0.027510140352112411 0 -0.027510140352112411 5.2255151912206088e-06 0 0 0 -0.005609065037358224 -0.025347763046107974 0.03681858846198427 0 0.03681858846198427 -0.0037221199302253094 0 0 0 -0.0072674707440835151 -0.023040393598750764 -0.028457601209687766 0 -0.028457601209687766 0.003672471678776823 0 0 0 -0.0048419804799935129 -0.033155282486007964 0.038827146598203299 0 0.038827146598203299 -0.0046999016379274394 0 0 0 -0.0094637960309840174 -0.066364705989112704 -0.02335016955043516 0 -0.02335016955043516 0.0026214684518842263 0 0 0 -0.015935809384307109 -0.020164831489659075 -0.031122575430397901 0 -0.031122575430397901 0.049452245274468738 0 0 0 0.0073218534462024289 -0.09651222483880717 0.0076976037908411121 0 0.0076976037908411121 0.011969674593503343 0 0 0 -0.021135637561325915 0.21081226165639 0.093123115061416711 0 0.093123115061416711 0.054112086721109787 0 0 0 0.066231087094374974 -0.0013400726689119791 0.0072698470999854048 0 0.0072698470999854048 -0.0022980024491082718 0 0 0 -0.00090951877950498639 -0.0030602236921628001 -0.0082620253734883298 0 -0.0082620253734883298 0.016254631050157342 0 0 0 0.0032986018394986494 -0.031131249230762215 -0.014616121133993021 0 -0.014616121133993021 0.061178216385243248 0 0 0 0.00751174178862026 -0.002061472902645245 -0.019462810011072751 0 -0.019462810011072751 0.04500486699044659 0 0 0 0.010735848521950198 -0.0067695337433706371 0.003742008756606463 0 0.003742008756606463 -0.0027428667415048125 0 0 0 -0.0023781001212186403 -0.022287731383460286 -0.004735411523824745 0 -0.004735411523824745 -0.012918628024947891 0 0 0 -0.0088015898521020437 -0.025725500182455927 0.0065083631938580074 0 0.0065083631938580074 -0.0090160258810285127 0 0 0 -0.0086853815158711087 -0.054720323529297149 0.049478885331726452 0 0.049478885331726452 0.049719671144589167 0 0 0 -0.0012501630961770094 -0.048617496286417733 0.043078179397426364 0 0.043078179397426364 0.03492480392551392 0 0 0 -0.0034231730902259672 0.098273282354072442 0.11349080822864921 0 0.11349080822864921 0.18943656213376436 0 0 0 0.071927461121959177 -0.010620887656270853 0.0077152978036494346 0 0.0077152978036494346 0.00051780092035771941 0 0 0 -0.0025257716839782313 -0.015391176732331074 -0.020705307684770635 0 -0.020705307684770635 0.038164874128331569 0 0 0 0.0056934243490001819 -0.019693373313005025 -0.010506035948800618 0 -0.010506035948800618 -0.02301400405627374 0 0 0 -0.010676844342319719 -0.033574573454036118 -0.013707665917155571 0 -0.013707665917155571 0.046958625445984392 0 0 0 0.0033460129979870634 -0.027297744594135219 -0.019570543553630353 0 -0.019570543553630353 0.0048071267022224973 0 0 0 -0.0056226544729781752 -0.02065169434144723 -0.0052957515450570564 0 -0.0052957515450570564 0.0086767874774468234 0 0 0 -0.0029937267160000669 -0.093924130370868386 0.01502889268325891 0 0.01502889268325891 -0.00089397212990838248 0 0 0 -0.023704525625194095 -0.0080519702062668008 -0.0051947755783626759 0 -0.0051947755783626759 0.00028189941134870722 0 0 0 -0.0019425176987293291 -0.0094661556101354183 0.023198669430769536 0 0.023198669430769536 0.071945160628366978 0 0 0 0.015619751254557723 -0.01563337168966757 -0.018180556816726701 0 -0.018180556816726701 0.059080470801862406 0 0 0 0.010861774778048765 -0.00045121439775308581 0.001447395528955278 0 0.001447395528955278 -0.00082166703509756189 0 0 0 -0.00031822035821260641 -0.020844437576553021 0.0018705537227990121 0 0.0018705537227990121 -0.0097465715367645034 0 0 0 -0.0076477522783293672 0.009888802486748385 -0.046497602565202717 0 -0.046497602565202717 0.076042089426837212 0 0 0 0.021482722978396353 -0.017810181594417329 4.3135103030889077e-05 0 4.3135103030889077e-05 -0.0060176589308783557 0 0 0 -0.0059569601313239628 -0.023657197944898734 -0.0077721941600610335 0 -0.0077721941600610335 -0.00081484857640168329 0 0 0 -0.006118011630325132 -0.033189898528458439 -0.02756021313386621 0 -0.02756021313386621 0.0077820424823313861 0 0 0 -0.0063519640115318188 -0.068581064246782217 -0.0033231879059591779 0 -0.0033231879059591779 -0.010958068040007105 0 0 0 -0.019884783071697335 -0.09561443669460637 -5.6813695891971827e-05 0 -5.6813695891971827e-05 -0.014790552831069491 0 0 0 -0.027601247381418968 0.0019985243276428918 0.0035954723167967995 0 0.0035954723167967995 -0.014240922837760085 0 0 0 -0.0030605996275292705 0.0031783503301232585 -0.0049875785732863553 0 -0.0049875785732863553 0.0040238313887795973 0 0 0 0.0018005454297256862 -0.068725561065060378 -0.0079775351411618973 0 -0.0079775351411618973 -0.017143973888511032 0 0 0 -0.021467383738392843 -0.053684692946531207 0.0023869662362656927 0 0.0023869662362656927 -0.012428663199100645 0 0 0 -0.01652833903640796 -0.015318713814370067 -0.00015808950017998286 0 -0.00015808950017998286 -0.013032805593522347 0 0 0 -0.0070878798519731058 -0.073546584061666864 0.0030591829747091924 0 0.0030591829747091924 0.00017686473921043125 0 0 0 -0.018342429830614102 -0.10630092001795122 -0.0080589450775429092 0 -0.0080589450775429092 0.0012784966237568002 0 0 0 -0.026255605848548587 -0.024402782150650393 -0.01501919453315443 0 -0.01501919453315443 -0.0058063106973529344 0 0 0 -0.007552273212000804 -0.025711434536127287 -0.01836467778287415 0 -0.01836467778287415 0.0050480541858631545 0 0 0 -0.0051658450875660261 0.0050661104907488985 0.021246515399095278 0 0.021246515399095278 0.086052328632789221 0 0 0 0.022779609780884225 -0.0055658091143504784 -0.0028816523468399025 0 -0.0028816523468399025 -0.0020864742302308947 0 0 0 -0.0019130708361454751 -0.025172057626972694 -0.015503953195959319 0 -0.015503953195959319 -0.006451381031972625 0 0 0 -0.0079058596647363366 -0.021474765263000795 -0.01008039412687986 0 -0.01008039412687986 -0.01029524367585366 0 0 0 -0.0079425022347135998 -0.050006966793641805 0.047291183718918162 0 0.047291183718918162 -0.0010594767773155489 0 0 0 -0.012766610892739338 -0.082822368411658007 -0.0019785140582946796 0 -0.0019785140582946796 -0.027622463435225772 0 0 0 -0.027611207961720938 -0.061234235541210873 -0.0015340562072532805 0 -0.0015340562072532805 -0.020421575781506548 0 0 0 -0.020413952830679354 -0.021591124153254263 -0.0049434384461968083 0 -0.0049434384461968083 -0.015265653130070276 0 0 0 -0.0092141943208311344 -0.010489816381248795 0.026721566619938963 0 0.026721566619938963 -0.0085686140450258463 0 0 0 -0.004764607606569049 -0.008313784553431236 -0.015770379123952738 0 -0.015770379123952738 -0.0041727988056972087 0 0 0 -0.0031216458397821389 -0.02436675860110946 -0.025951301424345097 0 -0.025951301424345097 0.0052357194979727045 0 0 0 -0.0047827597757842157 -0.012885410528136774 0.0034330556286753535 0 0.0034330556286753535 -0.0099604179615270533 0 0 0 -0.0057114571224159555 -0.049023439090744469 -0.013759218952313707 0 -0.013759218952313707 -0.0070385725581450613 0 0 0 -0.01401550291222238 -0.026336357014691586 -0.010365205408731037 0 -0.010365205408731037 -0.0058881676399115124 0 0 0 -0.0080561311636507815 -0.010109669251223847 0.0048193277898356708 0 0.0048193277898356708 -0.0086877270056901525 0 0 0 -0.0046993490642284969 -0.014016399147755607 0.0051187053555371061 0 0.0051187053555371061 -0.0074657809966834007 0 0 0 -0.0053705450361097515 -0.015549215760600591 0.0042498273516031826 0 0.0042498273516031826 -0.0083436103939080481 0 0 0 -0.0059732065386271611 -0.022848971174192434 -0.00097329172718663148 0 -0.00097329172718663148 0.005303065629968684 0 0 0 -0.004386476386055882 -0.02226706935135081 -0.024401328646989677 0 -0.024401328646989677 0.020560219478107461 0 0 0 -0.00042671246831081644 -0.018453436628593278 -0.010637483145626431 0 -0.010637483145626431 -0.0098684750445694469 0 0 0 -0.0070804779182906397 -0.032339913117292118 -0.015664829696287928 0 -0.015664829696287928 0.060842221568761193 0 0 0 0.0071255771128672686 -0.012733514693915815 0.020085983395401685 0 0.020085983395401685 0.1068611369058825 0 0 0 0.023531905552991672 -0.00045499537399573686 -0.0010416495379069743 0 -0.0010416495379069743 -0.00058680541564237743 0 0 0 -0.00026045019740961184 -0.007073799426471794 -0.0048681558888768644 0 -0.0048681558888768644 -0.0027949512577691848 0 0 0 -0.0024671876710603557 -0.005989212043898462 0.014655926934190155 0 0.014655926934190155 0.10910657255044232 0 0 0 0.025779340126636185 -0.018199134580800393 0.018051391726804339 0 0.018051391726804339 0.082437451432202005 0 0 0 0.016059579212850401 -0.022084832690005621 0.0052744517398420447 0 0.0052744517398420447 -0.0054993686570907925 0 0 0 -0.0068960503367741033 -0.025749171488737253 0.0047468914185637926 0 0.0047468914185637926 -0.0064490204708152893 0 0 0 -0.0080495479898881391 0.0091505031965208872 0.029082655125794721 0 0.029082655125794721 0.025380265550364545 0 0 0 0.008632692186721469 -0.012478179423957458 0.033568142415296265 0 0.033568142415296265 0.018173446758932066 0 0 0 0.0014238168337437074 -0.028372615662471561 -0.024214475648041436 0 -0.024214475648041436 0.019903684004128147 0 0 0 -0.002117232914585862 -0.0002992634897274471 -0.0074484076582491121 0 -0.0074484076582491121 -0.025845400344058023 0 0 0 -0.0065361659584463883 -0.00061472617128993656 0.0050767432221806158 0 0.0050767432221806158 -0.028342516849757859 0 0 0 -0.0072393107552619074 -0.031315138625147551 0.0093170579818855834 0 0.0093170579818855834 0.053709979534626202 0 0 0 0.005598710227369668 -0.0095865771540921685 0.0069713656942262548 0 0.0069713656942262548 -0.0041874469078990728 0 0 0 -0.0034435060154978103 -0.01254938760044777 -0.015121342959969475 0 -0.015121342959969475 0.059927368037508977 0 0 0 0.01184449510926544 -0.083703491078265385 0.0026501350673407767 0 0.0026501350673407767 0.00064181164806813296 0 0 0 -0.020765419857549292 -0.13697131551072311 -0.0073630281079125476 0 -0.0073630281079125476 0.00099463532226948259 0 0 0 -0.033994170047113408 -0.011864646160918584 -0.022777237765634201 0 -0.022777237765634201 0.0057679549997459167 0 0 0 -0.0015241727902931546 0.084525582414890138 -0.044707568283550575 0 -0.044707568283550575 0.036159613031250593 0 0 0 0.030171298861535162 -0.019481971989047969 -0.014646479844423022 0 -0.014646479844423022 -0.0036243052905405859 0 0 0 -0.0057765693198971735 -0.020001425339030342 -0.019332666733853532 0 -0.019332666733853532 0.00047647750019602642 0 0 0 -0.0048812369597085944 0.00043867775156445233 -0.006874948403853498 0 -0.006874948403853498 0.00024467849400104576 0 0 0 0.00017083906139123576 -0.0022375266775709335 0.0059128098701322074 0 0.0059128098701322074 -7.0440149977812894e-05 0 0 0 -0.00057699170688740864 0.00073389516874788896 0.0083565193997929832 0 0.0083565193997929832 0.0070581025593412505 0 0 0 0.0019479994320223959 -0.001892217156800354 -0.004730901404260246 0 -0.004730901404260246 -0.0020470688987981101 0 0 0 -0.00098482151389947732 -0.048007605504997608 0.023308818475486243 0 0.023308818475486243 0.065427774210593093 0 0 0 0.0043550421763988711 -0.028791040641142851 -0.013327341311937357 0 -0.013327341311937357 -0.000484960843973814 0 0 0 -0.007319000371279194 -0.023139179474247137 -0.012186485208111192 0 -0.012186485208111192 -0.0044327423472538957 0 0 0 -0.0068929804553752722 -0.022072975660247254 -0.011713560133959217 0 -0.011713560133959217 -0.0067155111275081919 0 0 0 -0.0071971216969388546 -0.0084508300663628799 -0.026026758081514993 0 -0.026026758081514993 0.011214503336871573 0 0 0 0.00069091831762718714 -0.13221321769123892 0.01666207516439755 0 0.01666207516439755 0.0022898538163202975 0 0 0 -0.032480840968729607 -0.049241832026507379 0.00088922700446981973 0 0.00088922700446981973 0.015686039737209501 0 0 0 -0.0083889480723244453 -0.040140245667141361 -0.0053492130467338306 0 -0.0053492130467338306 0.014264623256477871 0 0 0 -0.0064689056026658864 -0.015844106453606038 0.0044849267158132977 0 0.0044849267158132977 -0.023573133660164891 0 0 0 -0.0098543100284428087 -0.099000116499293966 0.031362674715838312 0 0.031362674715838312 -0.0006824022172189359 0 0 0 -0.024920629679128004 -0.073428491229367648 0.0059616083566995104 0 0.0059616083566995104 0.0037058920661942329 0 0 0 -0.017430649790793354 -0.074696654491438988 -0.0010205963215888791 0 -0.0010205963215888791 0.0040737367185767481 0 0 0 -0.017655729443215612 -0.12470485628119332 -0.0018327442304015978 0 -0.0018327442304015978 0.0091709358787134265 0 0 0 -0.028883480100619974 -0.11902543569388113 -0.018037095758053401 0 -0.018037095758053401 0.0099173399040786148 0 0 0 -0.027277023947450629 -0.025528429130710666 -0.0097002194445588164 0 -0.0097002194445588164 -0.0053023219844013647 0 0 0 -0.0077076877787779878 -0.077539069991653983 -0.0071654584597693194 0 -0.0071654584597693194 0.0014059037762319537 0 0 0 -0.019033291553855539 0.019747341848678213 0.055582684547711869 0 0.055582684547711869 0.017779178430214815 0 0 0 0.0093816300697232569 -0.037102590156819021 -0.011231276700944912 0 -0.011231276700944912 0.043260420490975754 0 0 0 0.0015394575835391685 -0.010015787943653877 0.013873188232708715 0 0.013873188232708715 0.015987900184921251 0 0 0 0.0014930280603168409 -0.029470965203726718 0.027360561379863979 0 0.027360561379863979 -0.0060698519333222123 0 0 0 -0.0088852042842623158 -0.021419681024006376 -0.027835296962189893 0 -0.027835296962189893 0.0089165914969522309 0 0 0 -0.0031257723817635918 -0.021767532517457715 -0.023147957188069543 0 -0.023147957188069543 0.022121478192518741 0 0 0 8.8486418765244303e-05 -0.0053360788363426281 0.004961156896203231 0 0.004961156896203231 -0.021258883067447942 0 0 0 -0.0066487404759476565 -0.023514891252385386 -0.012594003840891835 0 -0.012594003840891835 -0.010097383385219982 0 0 0 -0.0084030686594013249 -0.030029652635662523 -0.0082720161918873221 0 -0.0082720161918873221 -0.014981715914304805 0 0 0 -0.011252842137491831 -0.031153980749576433 0.0068883948513335843 0 0.0068883948513335843 -0.009732419511837313 0 0 0 -0.010221600065353437 -0.021496354081290275 -0.027994308467619189 0 -0.027994308467619189 0.013556683736956426 0 0 0 -0.0019849175860835178 -0.050800074556043268 -0.020580952207948668 0 -0.020580952207948668 -0.0047759243974338228 0 0 0 -0.013893999738369266 -0.067958233617693153 -0.0088571304959228769 0 -0.0088571304959228769 0.019520791696422846 0 0 0 -0.012109360480317577 -0.015344768698747551 -0.0014202965642381505 0 -0.0014202965642381505 -0.014146664119850039 0 0 0 -0.0073728582046493976 -0.013726419077769721 0.00065076953635934739 0 0.00065076953635934739 -0.0109028856004679 0 0 0 -0.0061573261695594059 -0.021115510305890959 0.0045317812855844271 0 0.0045317812855844271 -0.0078143327774348476 0 0 0 -0.0072324607708314521 -0.02138667663442188 0.0054289806053874554 0 0.0054289806053874554 -0.0082923673159406661 0 0 0 -0.0074197609875906352 -0.057408205900469619 -0.016870312354052466 0 -0.016870312354052466 0.019392203245638562 0 0 0 -0.009504000663707754 -0.017625958153751776 0.01170250215347777 0 0.01170250215347777 0.014388700388147713 0 0 0 -0.00080931444140101491 -0.01075913154631036 -0.0022439778242526625 0 -0.0022439778242526625 -0.01188732463180367 0 0 0 -0.0056616140445285082 -0.031372543105251796 -0.018421884611856457 0 -0.018421884611856457 -0.0058899895577180367 0 0 0 -0.0093156331657424617 -0.020379876020762518 0.014153998452715071 0 0.014153998452715071 0.043873328503949788 0 0 0 0.005873363120796813 -0.032005828720640797 0.0011660442642279414 0 0.0011660442642279414 0.0014668975877703237 0 0 0 -0.0076347327832176192 -0.030170338574105802 0.002241430230718917 0 0.002241430230718917 0.0051579170320496456 0 0 0 -0.0062531053855140392 -0.082810238616469467 -0.0019886478282679296 0 -0.0019886478282679296 -0.027583382908276746 0 0 0 -0.027598405381186557 -0.061226433111090314 -0.0015264574648807575 0 -0.0015264574648807575 -0.020396161099778102 0 0 0 -0.020405648552717103 0.077628643862867025 0.029064163681914557 0 0.029064163681914557 0.029490571451352351 0 0 0 0.026779803828554806 -0.022387893979905808 0.004239560509150371 0 0.004239560509150371 0.00018675604402193166 0 0 0 -0.0055502844839709735 -0.04349233566624694 -0.0084640802371497171 0 -0.0084640802371497171 0.049506196713751977 0 0 0 0.0015034652618762662 -0.011720138859516088 0.0010650878309105272 0 0.0010650878309105272 -0.033335222670128672 0 0 0 -0.011263840382411211 -0.078533314851724101 0.0037832612182944619 0 0.0037832612182944619 0.0010182407124286544 0 0 0 -0.019378768534823863 -0.12558557376848042 -0.0085410894006585358 0 -0.0085410894006585358 0.0011845388289996872 0 0 0 -0.031100258734870167 -0.024413740487580396 -0.010170952471871525 0 -0.010170952471871525 -0.014444128750399479 0 0 0 -0.009714467309494948 -0.070247585808368859 0.0074235331310708169 0 0.0074235331310708169 0.00045542750335875138 0 0 0 -0.017448039576252499 -0.088701172341225737 -0.025021941748471041 0 -0.025021941748471041 -0.0012630921504895726 0 0 0 -0.022491066122928845 -0.072362003614461462 0.004690242212419253 0 0.004690242212419253 -0.0002813861503007109 0 0 0 -0.018160847441190585 -0.042220675152405622 0.0042891691418976627 0 0.0042891691418976627 -0.0029661766437184744 0 0 0 -0.011296712949031031 -0.035945309852690246 -0.010733815553416581 0 -0.010733815553416581 -0.0091381630641489339 0 0 0 -0.0112708682292098 -0.061844487010861732 -0.020058578836356811 0 -0.020058578836356811 0.0073764510201069222 0 0 0 -0.013617008997688737 -0.029493646787201538 -0.0095876214787405378 0 -0.0095876214787405378 -0.0026177475303741371 0 0 0 -0.0080278485793938703 -0.016891420556508496 0.035441005176438944 0 0.035441005176438944 0.016199994800196293 0 0 0 -0.00017285643907793968 -0.02277550718982424 -0.017697682780064672 0 -0.017697682780064672 -0.0060153677532310823 0 0 0 -0.0071977187357638028 -0.017558682789809377 -0.0014767048552112565 0 -0.0014767048552112565 -0.010844584053833279 0 0 0 -0.0071008167109106622 -0.025220165480780647 0.0042907919342685249 0 0.0042907919342685249 -0.0084269104682041986 0 0 0 -0.0084117689872462154 -0.039765807475435629 -0.010532426146985373 0 -0.010532426146985373 -0.016266206414281351 0 0 0 -0.014008003472429247 -0.0372542067802724 0.0067197087988770353 0 0.0067197087988770353 -0.010826256636187215 0 0 0 -0.012020115854114903 -0.040226706987850851 -0.0090423377360593707 0 -0.0090423377360593707 0.010113886228862501 0 0 0 -0.0075282051897470961 -0.041131070500727375 -0.016320667226622579 0 -0.016320667226622579 0.01264180201557899 0 0 0 -0.0071223171212870875 -0.043796551427539132 0.050468110022432816 0 0.050468110022432816 0.010615456862931083 0 0 0 -0.0082952736411520123 -0.0040321433052522004 0.067120846517100929 0 0.067120846517100929 0.035685144299895333 0 0 0 0.007913250248660797 0.041776080925218811 0.00074686743935087341 0 0.00074686743935087341 0.039913608748307433 0 0 0 0.020422422418381575 -0.046208418897763989 -0.0053583540069746874 0 -0.0053583540069746874 0.039823984254137634 0 0 0 -0.0015961086609065957 -0.01223059199428405 0.0034414301253327295 0 0.0034414301253327295 -0.0099946070576560318 0 0 0 -0.0055562997629850213 -0.028647506065037881 -0.014139860693956348 0 -0.014139860693956348 -0.003963096946421385 0 0 0 -0.0081526507528648373 -0.045865759027139297 0.040858767110723671 0 0.040858767110723671 -0.00021130984385342444 0 0 0 -0.011519267217748319 -0.01560881368301309 -0.0031896021529585067 0 -0.0031896021529585067 0.027252368069382582 0 0 0 0.002910888596592387 -0.016430114229732506 -0.0085474283234559245 0 -0.0085474283234559245 -0.017482806545788432 0 0 0 -0.0084782301938802762 -0.028748363429331496 0.0041191482453625736 0 0.0041191482453625736 -0.0046000826235460812 0 0 0 -0.0083371115132193866 -0.065471124524688035 0.011122075081841321 0 0.011122075081841321 0.037901616475147004 0 0 0 -0.0068923770123852646 -0.077916076005220464 0.0014523146563603449 0 0.0014523146563603449 -0.0015450221260788002 0 0 0 -0.019865274532824818 -0.11843458777188183 -0.0036749755107675351 0 -0.0036749755107675351 -0.0031474816553829429 0 0 0 -0.030395517356816198 -0.021433837912256365 -0.013664971288291416 0 -0.013664971288291416 -0.0017963384208882494 0 0 0 -0.0058075440832861536 -0.045842527999818937 0.0034909160145311035 0 0.0034909160145311035 -0.0082853362637631198 0 0 0 -0.013531966065895514 -0.049749276494719538 -0.0076317338670852056 0 -0.0076317338670852056 -0.015148142778670942 0 0 0 -0.016224354818347615 -0.15231649799904828 0.0018294781177133901 0 0.0018294781177133901 0.0035139894418345641 0 0 0 -0.037200627139303361 -0.086243286812677386 -0.00069202378744906423 0 -0.00069202378744906423 0.0010050064760292188 0 0 0 -0.021309570084162052 0.0085131343732337203 0.019921879488447591 0 0.019921879488447591 0.091869600525285061 0 0 0 0.02509568372462969 0.059672406564611966 0.00014100826354671026 0 0.00014100826354671026 0.2303303036106219 0 0 0 0.07250067754380847 -0.02560775775878793 -0.029277132857604471 0 -0.029277132857604471 0.016791975929549063 0 0 0 -0.0022039454573096751 -0.037297525214670391 -0.02534279122071853 0 -0.02534279122071853 0.012086181712742283 0 0 0 -0.0063028358754820546 -0.020389013060222904 -0.028012519149094466 0 -0.028012519149094466 0.04000853466799454 0 0 0 0.0049048804019429012 -0.0023364159064316881 0.0012031808730267324 0 0.0012031808730267324 -0.03143139367395742 0 0 0 -0.0084419523950973185 -0.015296749231343507 -0.00017070151420906974 0 -0.00017070151420906974 -0.012992692868986366 0 0 0 -0.007072360525082466 -0.055700887854104292 -0.0037276245147992715 0 -0.0037276245147992715 0.0094048406687833319 0 0 0 -0.011574011796330247 0.0012792237220120017 -0.0026117474894732651 0 -0.0026117474894732651 -0.026832482031963867 0 0 0 -0.0063883145774878969 -0.13145684147141282 0.01568925977421104 0 0.01568925977421104 -8.6333908886737643e-05 0 0 0 -0.03288579384507475 -0.025568737374212835 0.027170579334228506 0 0.027170579334228506 -0.007416525187720957 0 0 0 -0.0082463156404837257 -0.018220651029703827 -0.027048920189918224 0 -0.027048920189918224 0.0053398564346922583 0 0 0 -0.0032201986487527812 -0.02219798291788265 0.0041594761818726433 0 0.0041594761818726433 0.011951987490617775 0 0 0 -0.0025614988568162184 -0.047333686705713987 -0.013382749131726795 0 -0.013382749131726795 0.01143804516937974 0 0 0 -0.0089739103840835444 -0.010489364152320775 0.008324770427894191 0 0.008324770427894191 -0.0014485265011391704 0 0 0 -0.0029844726633649864 -0.0071292963317576563 0.011593931147638223 0 0.011593931147638223 0.0051085274118382873 0 0 0 -0.00050519222997983879 -0.064289386058343237 -0.018319840642588941 0 -0.018319840642588941 -0.0028756896918778335 0 0 0 -0.01679126893755525 -0.034264351518587755 -0.025371594354486493 0 -0.025371594354486493 0.0032643035872543802 0 0 0 -0.0077500119828333713 -0.098384522514955886 -0.01459590467981537 0 -0.01459590467981537 -0.005916936395370824 0 0 0 -0.026075364727581672 -0.026777761635413899 0.043498402174755091 0 0.043498402174755091 0.00086091438454660718 0 0 0 -0.006479211812716823 -0.029065217622191927 0.043311860328828722 0 0.043311860328828722 0.00013715410171516451 0 0 0 -0.0072320158801191109 -0.030309198923850644 0.044778971090886355 0 0.044778971090886355 -0.001067615376950215 0 0 0 -0.0078442035752002148 -0.027493245774345587 -0.027075190896269807 0 -0.027075190896269807 0.0029315592094667497 0 0 0 -0.0061404216412196955 -0.032603167865305684 -0.025168556321714108 0 -0.025168556321714108 0.0011340828235432768 0 0 0 -0.0078672712604406017 0.044379590464570018 0.03155717825434852 0 0.03155717825434852 0.049307099341746846 0 0 0 0.023421672451579223 -0.016606661598638484 -0.0015805461457262652 0 -0.0015805461457262652 -0.0055415460443177392 0 0 0 -0.0055370519107390565 -0.022257553936315358 0.0048211874766277982 0 0.0048211874766277982 -0.0074208297088303472 0 0 0 -0.0074195959112864258 -0.02081324655212349 0.0052689232144486307 0 0.0052689232144486307 0.0018427118743989269 0 0 0 -0.0047426336694311394 -0.0038587769492950952 -0.012758526891457803 0 -0.012758526891457803 0.066006863956595274 0 0 0 0.015537021751825031 -0.077524856106151355 -0.022395929450465826 0 -0.022395929450465826 -0.0030529899815540801 0 0 0 -0.02014446152192638 -0.015606864411404886 0.0027767577212871042 0 0.0027767577212871042 -0.0087011203420501379 0 0 0 -0.0060769961883637563 -0.11928688199933084 -0.0055363195261073153 0 -0.0055363195261073153 -0.0034222693006502151 0 0 0 -0.030677287824995295 -0.077292527045722564 0.0021483035522266991 0 0.0021483035522266991 -0.00120874933750343 0 0 0 -0.019625319095806511 -0.077182157977552457 -0.0067860706307383001 0 -0.0067860706307383001 0.00055212915814606411 0 0 0 -0.019157507204851543 -0.017966074190555258 0.004951279454319165 0 0.004951279454319165 -0.0071594696417163744 0 0 0 -0.0062813859580679084 -0.02208396400700216 -0.0041974761473350108 0 -0.0041974761473350108 0.011715367921596359 0 0 0 -0.0025921490213514364 -0.026840807073146053 0.0099632633145531214 0 0.0099632633145531214 0.029979236218542114 0 0 0 0.00078460728634901708 -0.0041138731922414351 0.045005637193245795 0 0.045005637193245795 0.0062108528657806167 0 0 0 0.00052424491838476417 -0.010908382727443423 0.0032409130709156846 0 0.0032409130709156846 -0.010763036131059273 0 0 0 -0.0054178547146256761 -0.019831899768701255 0.025682460738697954 0 0.025682460738697954 -0.013841627542545254 0 0 0 -0.0084183818278116274 -0.015988635165091858 -0.025914105442750079 0 -0.025914105442750079 -0.0035548889881873436 0 0 0 -0.0048858810383198836 -0.017966979336032148 0.0050737602409185074 0 0.0050737602409185074 -0.007315301162886402 0 0 0 -0.0063205701247296365 -0.037433272362665138 0.0034466442849960741 0 0.0034466442849960741 0.039309300561203131 0 0 0 0.00046900704963449727 -0.0070398169355274653 0.021961753258903371 0 0.021961753258903371 0.00027330707456219017 0 0 0 -0.0016916274652414298 -0.0062408832536822167 0.01593371983731684 0 0.01593371983731684 -0.014017366751863491 0 0 0 -0.0050645625013867601 -0.0050962598927487557 -0.012111749401711502 0 -0.012111749401711502 -0.011323935999547174 0 0 0 -0.0041050489730740658 -0.0059815377496295064 -0.017999382098967009 0 -0.017999382098967009 -0.002807130004718994 0 0 0 -0.0021971669385870696 -0.09004314772311911 -0.002374148012117841 0 -0.002374148012117841 0.02065259515495288 0 0 0 -0.017347638142041544 -0.058123540734605267 -0.014667748857364549 0 -0.014667748857364549 0.0065756999587527065 0 0 0 -0.012886960193963154 -0.067504819047841141 -0.015031025357126054 0 -0.015031025357126054 0.0069371156680191892 0 0 0 -0.015141925844955495 -0.10929520778895196 0.035033120502862253 0 0.035033120502862253 0.016129096774899709 0 0 0 -0.023291527753513064 -0.0884648318030824 0.034301616063302579 0 0.034301616063302579 0.015533467667977918 0 0 0 -0.018232841033776093 -0.026900803113042 0.0038844580410745764 0 0.0038844580410745764 -0.0081343888331144656 0 0 0 -0.0087587979865391147 0.074875805098020054 0.027172751684276221 0 0.027172751684276221 0.024393526269458121 0 0 0 0.024817332841869599 -0.067298717208228762 -0.0082582421997281774 0 -0.0082582421997281774 -0.016106979370457818 0 0 0 -0.020851424144671636 -0.05411957386409473 0.0026823696552400788 0 0.0026823696552400788 -0.009960321357530881 0 0 0 -0.016019973805406401 -0.041541122830785704 -0.0099649253592675804 0 -0.0099649253592675804 0.027506822762968022 0 0 0 -0.0035085750169544135 -0.03980144785062531 0.0054583387902481413 0 0.0054583387902481413 -0.0063857531232251429 0 0 0 -0.011546800243462609 -0.038723320615421969 -0.011148255574297957 0 -0.011148255574297957 -0.016330791454249254 0 0 0 -0.013763528017417811 -0.1003218066506954 -0.018666950157758946 0 -0.018666950157758946 0.0013043908568933227 0 0 0 -0.024754353948450519 -0.10110370914030158 -0.018791220782588207 0 -0.018791220782588207 -0.0010141211778944698 0 0 0 -0.025529457579549008 -0.012485975082252576 0.032972899174273818 0 0.032972899174273818 0.016502298271381832 0 0 0 0.0010040807972824251 -0.010331725769063049 -0.014018383677579599 0 -0.014018383677579599 -0.00056732716629470659 0 0 0 -0.0027247632338395222 -0.0022886334781834243 -0.0030406644158447738 0 -0.0030406644158447738 -0.012419239322622075 0 0 0 -0.0036769682002014163 -0.00080094510977762878 0.0031065222814750659 0 0.0031065222814750659 -0.022633219575979413 0 0 0 -0.0058585411714393021 -0.039658621121206626 0.0030894059739934739 0 0.0030894059739934739 0.0013026191585959121 0 0 0 -0.0095890004906526681 -0.0018483646025233003 -0.0028504616268303917 0 -0.0028504616268303917 0.053260037173784414 0 0 0 0.012852918142815306 0.00098790433725465254 -0.0030214233958993364 0 -0.0030214233958993364 0.093161354206085067 0 0 0 0.023537314635834916 -0.020747441704656026 -0.012805358372193848 0 -0.012805358372193848 -0.0071598441102023527 0 0 0 -0.0069768214537146364 -0.067996005103919094 -0.0057761284078550156 0 -0.0057761284078550156 0.0079095417647536692 0 0 0 -0.015021615834791308 -0.00031294476464910348 0.00074858052264759056 0 0.00074858052264759056 -0.03071005265900284 0 0 0 -0.0077557493559130275 -0.099922102008492775 -0.025906174449690171 0 -0.025906174449690171 0.0059390727906959428 0 0 0 -0.023495757304449194 -0.023221762030673221 0.0045420226255130708 0 0.0045420226255130708 0.0086626554527353856 0 0 0 -0.0036397766444844545 -0.042379228789728135 -0.021461461678888474 0 -0.021461461678888474 0.019500447959200584 0 0 0 -0.0057196952076319085 -0.039628804563496628 -0.018670095041899593 0 -0.018670095041899593 0.017482179833939737 0 0 0 -0.0055366561823892713 -0.041488305582137883 0.0061320035076449916 0 0.0061320035076449916 -0.00056817218524477658 0 0 0 -0.010514119441845661 -0.056660661265461959 -0.011268284435410988 0 -0.011268284435410988 0.011533904359503244 0 0 0 -0.011281689226489616 -0.046588447185966747 0.0039377641328638482 0 0.0039377641328638482 -0.00063547740234343869 0 0 0 -0.011805981147077541 -0.034503641233973613 -0.012343309420538901 0 -0.012343309420538901 -0.013672313320235049 0 0 0 -0.01204398863855217 -0.071219102761584691 -0.0056646160551644259 0 -0.0056646160551644259 0.007941699990213269 0 0 0 -0.015819350692842876 -0.1210520479518947 0.0107210094895685 0 0.0107210094895685 0.02766266714550214 0 0 0 -0.023347345201598063 -0.067825496360690865 -0.0093037288682709142 0 -0.0093037288682709142 -0.015243619477932671 0 0 0 -0.020767278959655879 -0.053116781586175485 0.0034998448639939257 0 0.0034998448639939257 -0.011405443281351407 0 0 0 -0.016130556216881722 -0.048877604976391688 0.0067415553098748903 0 0.0067415553098748903 -0.0024541265559941141 0 0 0 -0.012832932883096448 -0.055329626023667124 -0.017667938893268714 0 -0.017667938893268714 -0.010751307829803523 0 0 0 -0.016520233463367655 -0.022547833240247356 -0.0040142963441818728 0 -0.0040142963441818728 -0.015375106100730201 0 0 0 -0.0094807348352443886 -0.0048085638326423041 -0.030167145774354781 0 -0.030167145774354781 0.037179591391440475 0 0 0 0.0080927568896995566 -0.0082570583302666173 0.0053324807278795402 0 0.0053324807278795402 -0.0094483203922407083 0 0 0 -0.0044263446806268314 -0.011915805395708468 0.02018242619287669 0 0.02018242619287669 -0.0045311897373325749 0 0 0 -0.0041117487832600386 -0.013485978069913584 -0.026424004463615758 0 -0.026424004463615758 0.0070291256073518049 0 0 0 -0.0016142131156403616 -0.047292437893965471 0.0059294842461435019 0 0.0059294842461435019 -0.0044723190764264908 0 0 0 -0.012941189242597989 -0.049819910530466735 -0.014284456543739608 0 -0.014284456543739608 -0.014465736588745214 0 0 0 -0.01607141177980299 -0.01225234181873751 0.006420097632507199 0 0.006420097632507199 -0.0046896668041765989 0 0 0 -0.0042355021557285277 -0.022639759830661549 -0.023664658813093552 0 -0.023664658813093552 0.026334563642681608 0 0 0 0.00092370095300500776 -0.073189214923686574 0.013050403257970777 0 0.013050403257970777 -0.0011632056081616327 0 0 0 -0.018588105132962163 -0.0032447612331696907 -0.013522404451762338 0 -0.013522404451762338 0.032421272580521188 0 0 0 0.0072941278368378604 -0.037239289735854109 -0.025743926074403345 0 -0.025743926074403345 0.0035199733634396768 0 0 0 -0.0084298290931035247 -0.041770150549205291 -0.0075070166146137575 0 -0.0075070166146137575 0.043381524698962115 0 0 0 0.00040284353743919032 -0.10144692173512801 -0.011611256200057693 0 -0.011611256200057693 -0.0027458632650763856 0 0 0 -0.02604819625005109 -0.069350376843005795 0.0036044634296542744 0 0.0036044634296542744 -0.0012793724035638845 0 0 0 -0.017657437311642425 0.00134906293813521 0.0066805716580411525 0 0.0066805716580411525 0.00017489943768898841 0 0 0 0.00038099059395604526 -0.015715766190970235 0.0047682960463123836 0 0.0047682960463123836 -0.0078093646220856686 0 0 0 -0.0058812827032639747 -0.038591474199015346 -0.016430195892559236 0 -0.016430195892559236 0.0080510415965600046 0 0 0 -0.0076351081506138008 -0.10352756633041339 -0.013782735078768765 0 -0.013782735078768765 -0.0012480826252819297 0 0 0 -0.026193912238923818 -0.07144257835262155 0.0053204181467250283 0 0.0053204181467250283 -0.00046993953027667235 0 0 0 -0.017978129470724566 -0.026640860933699551 0.0068382598725564821 0 0.0068382598725564821 0.044247025040527799 0 0 0 0.004401541026707062 -0.023355228726765986 -0.024821363086862336 0 -0.024821363086862336 -0.00031999395445581058 0 0 0 -0.0059188056703054492 -0.025412773121329391 0.039435544291551161 0 0.039435544291551161 -0.0015149806957666101 0 0 0 -0.0067319384542741112 -0.064580253517656686 0.0030565877615973402 0 0.0030565877615973402 0.0067247403756400467 0 0 0 -0.014463878285504122 -0.054275116482313507 -0.0020254634366391189 0 -0.0020254634366391189 0.0081533521708919213 0 0 0 -0.011530441077855367 -0.020670190394837414 -0.0079102155476951166 0 -0.0079102155476951166 0.015714977939057843 0 0 0 -0.0012388031139449023 -0.024217434595109385 -0.0080093274547168233 0 -0.0080093274547168233 0.021916819033004908 0 0 0 -0.00057515389052611565 -0.031924007460654678 -0.0079329805099833707 0 -0.0079329805099833707 -0.016627334405630349 0 0 0 -0.012137835466571257 -0.029926690103975435 -0.0047514769962947049 0 -0.0047514769962947049 -0.014504471371878658 0 0 0 -0.011107790368963526 -0.035396544302709318 0.0037649326963294432 0 0.0037649326963294432 -0.0087443680756677626 0 0 0 -0.011035228094594271 -0.034671856557681111 0.005843279957675267 0 0.005843279957675267 -0.0083676251113884471 0 0 0 -0.010759870417267389 -0.022774266627289375 -0.0051671441828602394 0 -0.0051671441828602394 -0.0058772311065495852 0 0 0 -0.0071628744334597816 -0.033768619780252335 0.0012788711055288704 0 0.0012788711055288704 0.047577220055554245 0 0 0 0.003452150068825472 -0.0051318404465804466 0.0079600022099000599 0 0.0079600022099000599 -0.0013279397269310225 0 0 0 -0.0016149450433778651 -0.01854831903349452 0.040960230483921979 0 0.040960230483921979 0.0036225624498928966 0 0 0 -0.0037314391459002394 -0.033493372699700763 -0.024390647563215517 0 -0.024390647563215517 -0.001131035167343919 0 0 0 -0.0086561019667611427 -0.012287239579254483 0.046620387210467351 0 0.046620387210467351 0.0031338002817764554 0 0 0 -0.0022883598243694792 -0.0016800899281303166 -0.0061478340821832095 0 -0.0061478340821832095 -0.0022088264475949027 0 0 0 -0.00097222909393129657 0.0034342981907442977 0.0013274063867220048 0 0.0013274063867220048 0.0065870723227700601 0 0 0 0.002505342628378586 -0.046581155127440987 0.046969342343051945 0 0.046969342343051945 0.00033455406194482507 0 0 0 -0.011561650266374013 -0.029259769529652924 0.050155051847864174 0 0.050155051847864174 0.002748396528192032 0 0 0 -0.0066278432503651397 -0.075361973164159476 -0.0076070322709474152 0 -0.0076070322709474152 -0.0094081705169697504 0 0 0 -0.02119253592028229 -0.058369284563527329 0.0019941393991807369 0 0.0019941393991807369 -0.0067268999718702281 0 0 0 -0.01627404613384939 -0.020511673179868684 -0.024506412994771645 0 -0.024506412994771645 0.01318106700471855 0 0 0 -0.001832651543787478 0.0025564260153358997 -0.0021198499868284731 0 -0.0021198499868284731 0.051806033156329478 0 0 0 0.013590614792916345 0.00061098800197462166 -0.0016170113639472905 0 -0.0016170113639472905 0.095920911003105125 0 0 0 0.024132974751269964 -0.033662932406064917 0.0031043518567292795 0 0.0031043518567292795 0.028858362925187696 0 0 0 -0.0012011423702193089 -0.0013113424120103044 0.011737408179225223 0 0.011737408179225223 0.0027185708762200722 0 0 0 0.00035180711605244455 -0.0081691304980344714 -0.0023210576764007979 0 -0.0023210576764007979 -0.02494993512860233 0 0 0 -0.0082797664066591725 -0.017085038104918515 -0.0031564235255828188 0 -0.0031564235255828188 -0.027903643361452235 0 0 0 -0.011247170366592674 -0.025262983611617398 -0.010439011994781949 0 -0.010439011994781949 -0.0079380971419278912 0 0 0 -0.008300270188386305 -0.020476899422504163 0.015437431892505904 0 0.015437431892505904 -0.0072222232147313159 0 0 0 -0.0069247806593088768 -0.014040172043654167 -0.02663987137442958 0 -0.02663987137442958 0.012093759784668284 0 0 0 -0.00048660306474658521 -0.0036785410250011474 0.0081737646050031587 0 0.0081737646050031587 -0.0031148623347968529 0 0 0 -0.0016983508399494862 -0.0049154004837589083 -0.012153429122899378 0 -0.012153429122899378 0.015479485043736085 0 0 0 0.0026410211399942596 -0.017206839350527581 0.033636239248899358 0 0.033636239248899358 -0.0011084628560276144 0 0 0 -0.0045788255516390208 -0.015967961370113803 -0.019151948600663604 0 -0.019151948600663604 -0.0095267256269307987 0 0 0 -0.0063736717492611783 -0.01341232965106798 0.0047008485240750365 0 0.0047008485240750365 -0.0082185094793401706 0 0 0 -0.0054077097826020389 -0.010097179254373928 0.0068412679071127381 0 0.0068412679071127381 -0.0052673223296986968 0 0 0 -0.0038411253960181583 -0.018917475788749805 0.037035391667947781 0 0.037035391667947781 0.0090762011561116296 0 0 0 -0.0024603186581595438 -0.019250108928472565 -0.019800694095882365 0 -0.019800694095882365 -5.0463940217682079e-05 0 0 0 -0.004825143217172756 -0.056960513389796956 -0.010070859819211785 0 -0.010070859819211785 -0.015251619047533835 0 0 0 -0.018053033109332695 -0.048120016717551527 0.004460054839051329 0 0.004460054839051329 -0.010107902209494212 0 0 0 -0.014556979731761437 0.0046413578039266046 0.049695163509096529 0 0.049695163509096529 0.015097786319213879 0 0 0 0.004934786030785121 -0.088897342196276347 -0.0049195437925068919 0 -0.0049195437925068919 -0.015016100715253174 0 0 0 -0.025978360727882375 -0.065371959679839206 -6.9297444003585699e-05 0 -6.9297444003585699e-05 -0.010236410245373541 0 0 0 -0.018902092481303194 -0.030588211562235124 0.012726749080704369 0 0.012726749080704369 -0.0057700156120157331 0 0 0 -0.0090895567935627142 -0.0091537727783088663 -0.0173128503139659 0 -0.0173128503139659 0.040480678452797791 0 0 0 0.0078317264186221758 -0.032097936917523613 -0.010144262824286432 0 -0.010144262824286432 0.05647704385959508 0 0 0 0.0060947767355178581 -0.056774117303863975 -0.0057864769515338366 0 -0.0057864769515338366 0.053892892986169116 0 0 0 -0.00072030607942372149 -0.038766279982455853 -0.023793056194016598 0 -0.023793056194016598 0.0072865436546500906 0 0 0 -0.0078699340819514685 -0.017080993913901152 -0.017028317516867619 0 -0.017028317516867619 0.00082964515869637934 0 0 0 -0.0040628371888012105 -0.043755051831477987 0.052647622161413499 0 0.052647622161413499 0.01304167406729162 0 0 0 -0.0076783444410464252 -0.084998164009425725 0.030813614699301162 0 0.030813614699301162 0.017724384359454115 0 0 0 -0.016818444912492958 -0.056590489091763035 -0.013367300245870253 0 -0.013367300245870253 0.0075783472546986363 0 0 0 -0.012253035459266148 0.0013647896551040872 -0.035339206943018217 0 -0.035339206943018217 0.026694711254576897 0 0 0 0.007014875227420253 -0.013991079687083158 0.0027488987814414112 0 0.0027488987814414112 0.022763881073568054 0 0 0 0.0021932003466212102 -0.01723467546862481 -0.0089989489362943265 0 -0.0089989489362943265 0.042620955644287473 0 0 0 0.0063465700439156725 -0.037831030157834789 -0.012507774386314608 0 -0.012507774386314608 0.03094475780332015 0 0 0 -0.0017215680886286562 -0.036040663683346172 -0.0097619713912309898 0 -0.0097619713912309898 0.028937944961775167 0 0 0 -0.0017756796803927513 -0.017715170028435506 0.017800889296366917 0 0.017800889296366917 0.066144827002839371 0 0 0 0.01210741424360097 -0.0073394114476044714 -0.018006195608191292 0 -0.018006195608191292 0.035992538255977036 0 0 0 0.007163281702093155 -0.012174743273235977 0.031597914542829786 0 0.031597914542829786 0.02797562423192268 0 0 0 0.0039502202396715091 -0.015144122918036684 -0.011459367173795476 0 -0.011459367173795476 -0.0057752223260267854 0 0 0 -0.0052298363110158119 -0.029882251300623684 0.011170856204801693 0 0.011170856204801693 0.039369869049053208 0 0 0 0.0023719044371073722 -0.028173496235994709 -0.0062011240593568551 0 -0.0062011240593568551 0.0060203292223589833 0 0 0 -0.0055382917534089679 -0.019030180086244047 -0.0058727600808548552 0 -0.0058727600808548552 -0.022250518193612734 0 0 0 -0.010320174569964174 -0.016338296697956577 0.015984424709876377 0 0.015984424709876377 0.025464240964908832 0 0 0 0.0022814860667380718 -0.016923294154543682 -0.0019693918016068456 0 -0.0019693918016068456 -0.015565469349101049 0 0 0 -0.0081221908759111817 -0.07971888193652571 -0.0069071545264267863 0 -0.0069071545264267863 0.001190018653986602 0 0 0 -0.019632215820634846 -0.033951323992161331 -0.0075953714275786358 0 -0.0075953714275786358 -0.015221238448256678 0 0 0 -0.012293140610104501 -0.0064995027576263097 0.0086109987791985216 0 0.0086109987791985216 -0.0023366428691246818 0 0 0 -0.0022090364066877505 -0.02793585925604096 0.0090954391048008454 0 0.0090954391048008454 0.05705278022122369 0 0 0 0.0072792302412956825 -0.13570610358529211 0.014789331460537207 0 0.014789331460537207 0.0016743165756021305 0 0 0 -0.033507946752422635 -0.01660909751292532 0.0044396121377676869 0 0.0044396121377676869 -0.0085781120148153076 0 0 0 -0.0062968023819351569 -0.0076531267960975521 0.00063349671930539204 0 0.00063349671930539204 -0.0068042991221304999 0 0 0 -0.0036143564795570182 -0.032085819407815977 -0.014386112703555054 0 -0.014386112703555054 0.0029875424369800868 0 0 0 -0.0072745692427089587 -0.04167943678094671 -0.019378960484790153 0 -0.019378960484790153 0.00030217119182029961 0 0 0 -0.010344316397281561 -0.022256835814294312 -0.008426843996443445 0 -0.008426843996443445 -0.014386113726676579 0 0 0 -0.0091607373852427253 -0.012924157485741578 0.0034839441374764214 0 0.0034839441374764214 -0.009376253153550812 0 0 0 -0.0055751026598230991 -0.010726484214524721 -0.0034548831054926621 0 -0.0034548831054926621 -0.0046189713597530983 0 0 0 -0.0038363638935694517 -0.033168367314489612 -0.016141631174334647 0 -0.016141631174334647 0.0096713449862575185 0 0 0 -0.0058742555820580633 -0.015565857232968383 0.0014662067006019075 0 0.0014662067006019075 0.009345865079773974 0 0 0 -0.0015549980382986162 -0.068499202187129377 -0.025876615694348404 0 -0.025876615694348404 -0.0046945770820473187 0 0 0 -0.018298444817294153 0.00077811377039446739 0.017613707439180892 0 0.017613707439180892 0.076519548214077804 0 0 0 0.019324415496118158 -0.021279843034565774 -0.0081346480908688346 0 -0.0081346480908688346 -0.0034060340159507707 0 0 0 -0.0061714692626290285 -0.010743892725261118 0.0053282757075226997 0 0.0053282757075226997 -0.0076814621055986973 0 0 0 -0.0046063387077149558 -0.008165837124429174 0.006003774186197677 0 0.006003774186197677 -0.0077330772170350892 0 0 0 -0.0039747285853660649 -0.022425988158813581 0.016891454335368428 0 0.016891454335368428 0.0015792944515125029 0 0 0 -0.0052116734268259357 -0.01920391985911718 -0.023452117158255098 0 -0.023452117158255098 0.022455745558265683 0 0 0 0.00081295642478695918 -0.010311032736290542 0.010546270109422185 0 0.010546270109422185 0.0061549519511983966 0 0 0 -0.0010390201962730324 -0.016094233178158057 0.0091141149019188898 0 0.0091141149019188898 0.0053178203565405688 0 0 0 -0.0026941032054043669 -0.011166636568783389 0.0059914123665570744 0 0.0059914123665570744 -0.0063638305208478328 0 0 0 -0.004382616772407805 -0.060084083463979115 0.0054181735130946953 0 0.0054181735130946953 -0.001119105726731056 0 0 0 -0.015300797297677558 -0.033289312921737764 -0.001008389105799503 0 -0.001008389105799503 0.01173853526780505 0 0 0 -0.0053876944134831767 -0.020548436501610909 -0.0041295614478193375 0 -0.0041295614478193375 0.014010883996558338 0 0 0 -0.0016343881262631393 -0.066281302631106404 0.005927297119875153 0 0.005927297119875153 -0.0025783343430753978 0 0 0 -0.017214909243545441 0.04019536826090761 0.068530418485534428 0 0.068530418485534428 0.046978405775656401 0 0 0 0.021793443509141003 -0.018154740114753931 0.03076996296403875 0 0.03076996296403875 -0.0036930093619265136 0 0 0 -0.0054619373691706663 -0.016724501793729196 -0.025746739726659106 0 -0.025746739726659106 -0.0031349474207909012 0 0 0 -0.0049648623036300243 -0.024724221580730527 0.0030175639326089909 0 0.0030175639326089909 0.0063070898982285177 0 0 0 -0.0046042829206255024 -0.014891109310399071 0.0036234662247111304 0 0.0036234662247111304 -0.0076121898236560497 0 0 0 -0.0056258247835137797 0.010796871936086458 -0.0022912408784317388 0 -0.0022912408784317388 0.013477125027077208 0 0 0 0.0060684992407909061 -0.024896939037363508 -0.010062577847379163 0 -0.010062577847379163 -0.0054323542410795733 0 0 0 -0.0075823233196107842 -0.026446404822263583 -0.012682531763691524 0 -0.012682531763691524 -0.0095957470335072403 0 0 0 -0.0090105379639427163 -0.016181159291903734 0.0063602838163155477 0 0.0063602838163155477 -0.00096161181599485612 0 0 0 -0.004285692776974652 -0.062818801323308138 -0.013985495074899879 0 -0.013985495074899879 0.00069831830289479591 0 0 0 -0.015530120755103238 -0.052197611225140106 -0.01885404589428552 0 -0.01885404589428552 0.0042745365294670767 0 0 0 -0.01198076867391823 -0.014221103244180074 0.0017132721048347681 0 0.0017132721048347681 -0.0047446220032363101 0 0 0 -0.0047414313118540963 -0.075899288412824784 0.040107960483295235 0 0.040107960483295235 0.0064598657626246947 0 0 0 -0.01735985566255005 -0.099085302671314657 0.030337920896550186 0 0.030337920896550186 -0.00029281579967399551 0 0 0 -0.02484452961774708 -0.0091464409523482337 0.0076672394437362623 0 0.0076672394437362623 0.013700356518908552 0 0 0 0.0011384788916401489 -0.010664940935449119 -0.013564236694910498 0 -0.013564236694910498 0.027313586876348994 0 0 0 0.0041621614852249134 -0.0004503215786167622 -0.015230059740352048 0 -0.015230059740352048 0.0045918828077202989 0 0 0 0.0010353903072758894 -0.021364646862643194 -7.7029856874077929e-05 0 -7.7029856874077929e-05 -0.01860581877468459 0 0 0 -0.0099926164093319392 0.020618571900553009 0.034595652158372285 0 0.034595652158372285 0.079134889453841339 0 0 0 0.024938365338598584 -0.01746403946880987 -0.005626241465529716 0 -0.005626241465529716 -0.011669109059091614 0 0 0 -0.0072832871319753788 -0.028528431573400639 -0.011648105313014995 0 -0.011648105313014995 0.024139191289291373 0 0 0 -0.001097310071027327 0.035903341218532836 0.025489822348193414 0 0.025489822348193414 0.015137332087142186 0 0 0 0.012760168326418742 -0.024614088787198337 0.0024113864194000587 0 0.0024113864194000587 0.0052209010229512746 0 0 0 -0.0048482969410617678 -0.017643153338977702 0.034537096723528782 0 0.034537096723528782 -0.0036297897410362268 0 0 0 -0.0053182357700035654 -0.015685582463779879 -0.021806059836744662 0 -0.021806059836744662 -0.0015478541170743654 0 0 0 -0.0043083591452134917 -0.023841588189902674 0.0034868916739231835 0 0.0034868916739231835 -0.0031037324959094521 0 0 0 -0.0067363301714530284 -0.045684993631975382 -0.01178327804970312 0 -0.01178327804970312 0.044035547036400946 0 0 0 -0.00041236164889361243 -0.016421948649397944 0.028247575995007601 0 0.028247575995007601 0.038181195495498255 0 0 0 0.0054398117115248557 -0.015882239152192223 -0.011006643343524081 0 -0.011006643343524081 0.0011474659777881424 0 0 0 -0.0036836932936009648 -0.10023912297837653 0.0020840857446934981 0 0.0020840857446934981 0.00099621348589390424 0 0 0 -0.024810727373120622 -0.17850742663563821 -0.0066656687866591515 0 -0.0066656687866591515 0.0014428835303532672 0 0 0 -0.044266135776321221 -0.017268694251780237 0.013329497262796627 0 0.013329497262796627 0.075480357656854791 0 0 0 0.014552915851268611 -0.049409757384863154 0.0075929805452436567 0 0.0075929805452436567 -0.00028389481353116586 0 0 0 -0.012423413049598583 0.014298916588189136 -0.00083972952895350339 0 -0.00083972952895350339 0.035987660928029672 0 0 0 0.012571644379054702 0.0092494174631610471 0.0030914628517603182 0 0.0030914628517603182 0.0568039609370522 0 0 0 0.016513344600053381 0.0095157618016104561 -0.0053520496268643636 0 -0.0053520496268643636 0.10708075646597448 0 0 0 0.029149129566896248 0.019945537523449242 -0.0015147817599089897 0 -0.0015147817599089897 0.081180096466496487 0 0 0 0.025281408497486446 -0.01446749390531793 0.0084057407182852872 0 0.0084057407182852872 -0.010971803286701443 0 0 0 -0.0063598242980049124 -0.015136420121255267 -0.015123513762477503 0 -0.015123513762477503 -0.0032043349694390599 0 0 0 -0.0045851887726736651 -0.0086079057991268887 0.0025452580740235042 0 0.0025452580740235042 0.078256888827276383 0 0 0 0.017412245757037384 -0.011384734359006499 -0.0081198477784480971 0 -0.0081198477784480971 0.038244300690564725 0 0 0 0.0067148915828895428 -0.048752585067212112 0.0043052229442379492 0 0.0043052229442379492 0.035562555723078634 0 0 0 -0.0032975073360333694 -0.0040775410451070471 0.025228394496461304 0 0.025228394496461304 0.01466058902626699 0 0 0 0.0026457619952899858 -0.0067838230928050081 0.0086213977034635403 0 0.0086213977034635403 -0.0050936229243996323 0 0 0 -0.002969361504300938 -0.0052781534827467391 -0.0067922947022589497 0 -0.0067922947022589497 -0.0041374772630087264 0 0 0 -0.0023539076864388386 -0.0057735183021347947 -0.021049226664769716 0 -0.021049226664769716 0.0023244493471663574 0 0 0 -0.00086226723874216482 -0.018312758241533972 0.0056994826465949101 0 0.0056994826465949101 -0.0015226526294558999 0 0 0 -0.0049588527177474671 -0.014059264474908212 0.02573983858690676 0 0.02573983858690676 0.028287532145567396 0 0 0 0.0035570669176648029 -0.003671500779503227 -0.0060624660884356363 0 -0.0060624660884356363 -0.0028479969831163576 0 0 0 -0.0016298744406548146 -0.035181487787306627 -0.0027638197877928811 0 -0.0027638197877928811 0.057010787609694857 0 0 0 0.0054573249555970498 -0.0047205208291130063 0.0078888516639172845 0 0.0078888516639172845 -0.0042267410299086094 0 0 0 -0.0022368154647551819 -0.012721745771144155 -0.022172495906737866 0 -0.022172495906737866 0.013765753784024781 0 0 0 0.00026100200322021205 -0.0048974415909986968 -0.020202902700966974 0 -0.020202902700966974 0.015949049332976584 0 0 0 0.0027629019354944995 -0.033948727024474906 -0.01708897446600316 0 -0.01708897446600316 0.0060722859764691661 0 0 0 -0.0069691102620014211 -0.033151367704323489 -0.015961888952645512 0 -0.015961888952645512 0.0078003573666787784 0 0 0 -0.0063377525844111743 -0.017730245983256412 -0.0085120756381520807 0 -0.0085120756381520807 -0.0082120666700483264 0 0 0 -0.0064855781633261908 -0.017734476985534209 0.059059458145910515 0 0.059059458145910515 0.013139167517298378 0 0 0 -0.0011488273670589022 -0.062110022995988834 -0.0067236743583347636 0 -0.0067236743583347636 -0.00020172027464937514 0 0 0 -0.015577935817659594 0.016965800102185492 -0.01568401301150809 0 -0.01568401301150809 0.026641985525312092 0 0 0 0.010901946406874412 -0.011742676413263695 -0.0086392008309777168 0 -0.0086392008309777168 0.016429325957387025 0 0 0 0.0011716623860308223 -0.0029155133582063758 0.016832925852257777 0 0.016832925852257777 0.013812493234458767 0 0 0 0.0027242449690630978 -0.021981518910903136 -0.0089191139190255425 0 -0.0089191139190255425 -0.013173257187192422 0 0 0 -0.0087886940245238687 -0.023751995151071459 -0.010135568505996947 0 -0.010135568505996947 -0.017383062973985286 0 0 0 -0.010283764531264172 -0.20449566608786887 0.0033413159750183019 0 0.0033413159750183019 0.0054888351421362724 0 0 0 -0.049751707736433171 -0.10852356673680766 -0.0014880028202827603 0 -0.0014880028202827603 0.0023781992928151308 0 0 0 -0.026536341860998125 -0.02248796030866352 -0.0040416568991461363 0 -0.0040416568991461363 -0.0074976471098609047 0 0 0 -0.0074964018546311061 -0.027930092459461483 0.005019456520910597 0 0.005019456520910597 -0.00930977889464428 0 0 0 -0.0093099678385264398 0.0030817092632837786 0.0053155495620104617 0 0.0053155495620104617 0.0031041621459516056 0 0 0 0.0015464678523088513 -0.010381450143132607 0.014919781569294709 0 0.014919781569294709 0.015951723239123042 0 0 0 0.0013925682739976096 -0.0058354987665345543 0.010095111664542036 0 0.010095111664542036 0.0023797621767404492 0 0 0 -0.00086393414744853451 -0.090478720745215346 -0.012561680294738017 0 -0.012561680294738017 -0.0086541627676087439 0 0 0 -0.024783220878206016 -0.066082748249505094 0.0039897917379334048 0 0.0039897917379334048 -0.0042125259622081412 0 0 0 -0.017573818552928333 0.040689578492579592 0.027973712631819858 0 0.027973712631819858 0.019080692842198044 0 0 0 0.014942567833694298 -0.074477330728416821 -0.011771462713661173 0 -0.011771462713661173 -0.0050275700101565773 0 0 0 -0.019876225184643354 -0.058273249007211189 0.0039348339817065151 0 0.0039348339817065151 -0.002674364008277752 0 0 0 -0.015236903253872237 -0.027511349872783419 -0.0028244763018346608 0 -0.0028244763018346608 -0.0076074678025583875 0 0 0 -0.0087797044188354101 0.033842715284234048 0.076781133293295445 0 0.076781133293295445 0.047564142736246096 0 0 0 0.020351714505120133 0.00011288718808950132 0.0079292278553227541 0 0.0079292278553227541 -0.0028362620930060395 0 0 0 -0.00068084372622913281 -0.023100681472209214 -0.0071566444224894638 0 -0.0071566444224894638 0.0072312872436020303 0 0 0 -0.0039673485571518202 -0.044626583502083407 -0.0072742927791646719 0 -0.0072742927791646719 -0.014872464759640599 0 0 0 -0.014874762065431001 -0.041378551448219746 0.0041455912436349027 0 0.0041455912436349027 -0.01378972445549044 0 0 0 -0.013792068975927546 -0.08879066564062417 0.0033221691859792487 0 0.0033221691859792487 -0.00050690267725593541 0 0 0 -0.022324392079470002 -0.14526143975022593 -0.0084259850968228314 0 -0.0084259850968228314 -0.0010166206304471348 0 0 0 -0.036569515095168231 -0.052288375684928917 -0.0069166607181607997 0 -0.0069166607181607997 0.019056775369963752 0 0 0 -0.0083079000787413815 0.011937047395539246 -0.012996298328820544 0 -0.012996298328820544 0.020502215478967578 0 0 0 0.0081098157186267339 -0.041821623381603203 -0.0080582750506075218 0 -0.0080582750506075218 0.041922235859960445 0 0 0 2.5153119589301984e-05 -0.016283097582433764 0.012144585122841004 0 0.012144585122841004 0.024166083244874507 0 0 0 0.0019707464156101927 -0.025153430643440673 0.0078937909733243702 0 0.0078937909733243702 0.027537407942951807 0 0 0 0.00059599432487777819 0.0086048309907269631 0.016339341686646476 0 0.016339341686646476 0.022191287521655743 0 0 0 0.0076990296280956792 0.018653106986318127 0.012822630183764519 0 0.012822630183764519 0.011986482067464312 0 0 0 0.0076598972634456114 -0.015952333306397143 -0.011378503320001676 0 -0.011378503320001676 -0.024292604813252683 0 0 0 -0.010061234529912477 -0.043622432252076251 -0.013363308697247084 0 -0.013363308697247084 0.020244206151741544 0 0 0 -0.0058445565250836561 -0.047468255526753676 -0.023401423198829409 0 -0.023401423198829409 0.048413918283825769 0 0 0 0.00023641568926802831 -0.0092620009966187071 -0.040040627042230451 0 -0.040040627042230451 0.078476127953148775 0 0 0 0.017303531739132506 -0.083184759689234167 0.0030546041060713278 0 0.0030546041060713278 -0.00048517443686682538 0 0 0 -0.020917483531525238 -0.13041533068619113 -0.0072061974431006969 0 -0.0072061974431006969 -0.0011299452731823173 0 0 0 -0.032886318989843372 -0.0011333162176427574 -0.0015829064076308685 0 -0.0015829064076308685 -0.026854321980721206 0 0 0 -0.0069969095495910601 -0.0075053088181301075 -0.023842770685794379 0 -0.023842770685794379 0.058681490558396332 0 0 0 0.012794045435066542 -0.0079115491846159097 0.0092045762244096982 0 0.0092045762244096982 -0.0023824208485596805 0 0 0 -0.0025734925082939028 -0.071097529091974004 -0.011598418964189922 0 -0.011598418964189922 -0.011103843991968194 0 0 0 -0.020550343270985549 -0.055771259564594076 0.0042119663778512253 0 0.0042119663778512253 -0.0063055038661917464 0 0 0 -0.015519190857696451 -0.025797964170157534 0.0032159547700258608 0 0.0032159547700258608 -0.0036273405194350624 0 0 0 -0.0073563261723981494 -0.04163917732142023 -0.0047776710068440139 0 -0.0047776710068440139 0.04568953594163306 0 0 0 0.0010125896550532056 -0.017402139560300123 -0.011739502802921742 0 -0.011739502802921742 0.012276759037371743 0 0 0 -0.0012813451307320256 -0.027485455132580182 0.0048320825416698675 0 0.0048320825416698675 -0.0020241351541502141 0 0 0 -0.0073773975716825979 -0.052244570689544245 0.013213043426833382 0 0.013213043426833382 0.00054578667990989871 0 0 0 -0.012924696002408753 -0.01096913987082343 -0.016675770589938299 0 -0.016675770589938299 0.036271005285448688 0 0 0 0.0063254663536564393 -0.0050032968501892983 -0.01462593781091831 0 -0.01462593781091831 0.030659809770579804 0 0 0 0.0064141282300976821 -0.030117866408020409 -0.019550725436162569 0 -0.019550725436162569 0.031570484202877586 0 0 0 0.0003631544487142993 -0.03384396770559453 -0.012080532961357693 0 -0.012080532961357693 0.023148624498922965 0 0 0 -0.0026738358016678843 -0.02553095598467673 -0.00058635048811919938 0 -0.00058635048811919938 0.019164261262535086 0 0 0 -0.0015916736805354124 -0.040183010136024988 -0.0051856037930006569 0 -0.0051856037930006569 0.043628155135035498 0 0 0 0.00086128624975261373 0.00076846413437436922 0.022737036140615619 0 0.022737036140615619 0.085091679442603763 0 0 0 0.021465035894244311 0.00013988428270983455 7.7320061621533043e-05 0 7.7320061621533043e-05 0.00060618486535402027 0 0 0 0.0001865172870159082 -0.0021621057916243469 -0.018343342067482116 0 -0.018343342067482116 0.044651042428856536 0 0 0 0.010622234159308075 0.00032275504297030189 -0.00027460193085016016 0 -0.00027460193085016016 0.00070133280408946064 0 0 0 0.00025602196176488512 -0.025459000920031252 0.0026255058293434474 0 0.0026255058293434474 0.020745879053295609 0 0 0 -0.0011782804666839097 -0.027092247787364902 0.00025700926104529377 0 0.00025700926104529377 0.013331441302965194 0 0 0 -0.0034402016210999357 -0.025600276651988441 -0.0079426007533336396 0 -0.0079426007533336396 0.018886875870716094 0 0 0 -0.0016783501953180763 -0.11549784052527777 -0.012782291232856798 0 -0.012782291232856798 0.0013271851579673422 0 0 0 -0.02854266384182759 -0.1336425009805538 -0.018825236506820497 0 -0.018825236506820497 0.0017933463050850695 0 0 0 -0.032962288668867218 -0.022060248219108597 -0.019749709925451307 0 -0.019749709925451307 -0.0017902586090391345 0 0 0 -0.0059626267070369415 -0.034511596210852792 2.1969186147236669e-06 0 2.1969186147236669e-06 0.0049818574468022125 0 0 0 -0.0073824346910126501 -0.01122050554896132 -0.02683462155506644 0 -0.02683462155506644 0.043764183203954546 0 0 0 0.0081359194137483118 -0.053971040285888651 0.0049779083756262754 0 0.0049779083756262754 -0.0056478948024501364 0 0 0 -0.014904733772084696 -0.045678078698194444 0.0044740856393198072 0 0.0044740856393198072 -0.0073399557041795311 0 0 0 -0.013254508600593497 -0.049670957180395187 -0.010824908403445977 0 -0.010824908403445977 -0.013310018787238096 0 0 0 -0.015745243991908318 -0.066157871944424629 -0.012916538707707119 0 -0.012916538707707119 -0.01286737183926142 0 0 0 -0.019756310945921514 -0.050257936974808959 -0.018563637126548349 0 -0.018563637126548349 0.00075108559257586194 0 0 0 -0.012376712845558191 -0.039045066844896503 -0.01987616355374118 0 -0.01987616355374118 0.0012399629594648243 0 0 0 -0.0094512759713578642 -0.024349479393075104 -0.0036991060407734594 0 -0.0036991060407734594 -0.013808042257227406 0 0 0 -0.0095393804125756265 -0.023424839631103086 -0.0046435086360313094 0 -0.0046435086360313094 -0.014546976523290579 0 0 0 -0.0094929540385984158 -0.028134414390773823 0.0058975317883735549 0 0.0058975317883735549 -0.0077738389152169109 0 0 0 -0.0089770633264976835 -0.0306599192903508 0.0041529481293640551 0 0.0041529481293640551 -0.010040512083026677 0 0 0 -0.010175107843344368 -0.021067581043746619 0.037963809937064497 0 0.037963809937064497 0.00081329852590128482 0 0 0 -0.0050635706294610561 -0.022195735366487002 -0.023378792620902367 0 -0.023378792620902367 -0.0044481304411680966 0 0 0 -0.0066609664519138301 -0.040746716421330126 0.0034840498912414178 0 0.0034840498912414178 -0.0058522012796907007 0 0 0 -0.011649729425255204 -0.033240244615586029 -0.0085298455020783332 0 -0.0085298455020783332 -0.013705811138923236 0 0 0 -0.011736513938627319 -0.025689273447206503 -0.0034675279448384035 0 -0.0034675279448384035 0.0088951722695511659 0 0 0 -0.0041985252944138317 -0.048788895087857248 0.0043051067948662643 0 0.0043051067948662643 -0.0041572164590964822 0 0 0 -0.013236527886738427 -0.053055918789467221 -0.012203273322127168 0 -0.012203273322127168 -0.0088524383141855116 0 0 0 -0.015477089275913174 -0.064972546580869497 -0.011953504229200704 0 -0.011953504229200704 0.074806362610315064 0 0 0 0.0024584540073613811 -0.028253130898862951 -0.0014538907286430029 0 -0.0014538907286430029 0.010355940809282788 0 0 0 -0.0044742975223950425 -0.057421150739292999 -0.0068621121830982111 0 -0.0068621121830982111 -0.01914892078645233 0 0 0 -0.019142517881436335 -0.048070831318887931 0.0028483351216420727 0 0.0028483351216420727 -0.016027873256135174 0 0 0 -0.016024676143755776 0.021553799015582936 0.0093538714779495078 0 0.0093538714779495078 0.024666479992451529 0 0 0 0.011555069752008623 -0.0056919895886333172 -0.0017720039306262092 0 -0.0017720039306262092 -0.033635620885912987 0 0 0 -0.0098319026186365344 -0.04246098249165195 0.0026261595950049926 0 0.0026261595950049926 0.0067775022333740609 0 0 0 -0.0089208700645694444 0.0067932274329000342 -0.022010265305220877 0 -0.022010265305220877 0.014025676375707063 0 0 0 0.0052047259521517952 -0.026093729042590469 0.0037943866786221648 0 0.0037943866786221648 0.020907712188469811 0 0 0 -0.0012965042135301601 -0.032380604792090262 -0.0063000993447048636 0 -0.0063000993447048636 0.022686510895070788 0 0 0 -0.0024235234742548684 -0.10654327977627873 -0.0043385046486604534 0 -0.0043385046486604534 -0.0080402848768565734 0 0 0 -0.028645891163283824 -0.074907651755909382 -0.00044604633592210466 0 -0.00044604633592210466 -0.005720655834042139 0 0 0 -0.020157076897487882 -0.0062485882466075046 -0.01297669706919452 0 -0.01297669706919452 0.026696754513579141 0 0 0 0.0051120415667429073 -0.021293803806832975 0.0076566868149969174 0 0.0076566868149969174 0.013331083145691348 0 0 0 -0.0019906801652854068 -0.028548581225721334 -0.0021902748819087395 0 -0.0021902748819087395 0.0063092685301921669 0 0 0 -0.0055598281738822863 -0.065648068802425921 0.001610994328386503 0 0.001610994328386503 0.0037766182791720282 0 0 0 -0.015467862630813484 -0.076571725093869558 0.014574605797287532 0 0.014574605797287532 0.000730189805996595 0 0 0 -0.018960383821968518 -0.033566297556731073 -0.0012399722738977714 0 -0.0012399722738977714 0.019258897372161826 0 0 0 -0.0035768500461423047 -0.034036333105228876 -0.01433151546396115 0 -0.01433151546396115 0.012481638455603461 0 0 0 -0.0053886736624063347 -0.032140929275646837 0.00094161180156726587 0 0.00094161180156726587 0.0069601290820039408 0 0 0 -0.006295200048410738 -0.019924341556623475 0.0071877634914198022 0 0.0071877634914198022 0.017199277502437008 0 0 0 -0.00068126601354662371 -0.038975091294552518 -0.016872461127150878 0 -0.016872461127150878 0.011124006687934923 0 0 0 -0.0069627711516543969 0.043331368140549179 0.012560021474407046 0 0.012560021474407046 0.066569237870319042 0 0 0 0.02747515150271708 -0.036979680741840396 0.0046220054166492925 0 0.0046220054166492925 0.0025435717056641327 0 0 0 -0.0086090272590440622 -0.047034260871958944 0.011143802285154986 0 0.011143802285154986 -0.0021016230158314997 0 0 0 -0.012283970971947555 -0.0082408453744705068 -0.014336768340619033 0 -0.014336768340619033 0.03996631726658828 0 0 0 0.0079313679730294018 0.0034885570783512732 -0.011996904677712916 0 -0.011996904677712916 0.027490769055884323 0 0 0 0.0077448315335588713 -0.087690335362845401 -0.021245445488421916 0 -0.021245445488421916 0.023543188770135021 0 0 0 -0.016036786648177568 0.0018661500315961393 -0.010669260839213063 0 -0.010669260839213063 -0.011385708013369064 0 0 0 -0.0023798894954432312 -0.085420510670438432 0.0055569724841807028 0 0.0055569724841807028 0.0015766098508107618 0 0 0 -0.020960975204906918 -0.14566367861641821 -0.017570238703506214 0 -0.017570238703506214 0.0043079080920303131 0 0 0 -0.035338942631097034 -0.083501010530410716 0.00080320690483526302 0 0.00080320690483526302 -3.9073311628765039e-05 0 0 0 -0.020885020960509842 -0.14485056178882899 -0.0046565157398310714 0 -0.0046565157398310714 0.0013221789661271299 0 0 0 -0.035882095705675465 -0.065104183714926295 -0.00026422251834026279 0 -0.00026422251834026279 -0.0085308549792428787 0 0 0 -0.018408759673542299 -0.088829387864542683 -0.0037903008172193373 0 -0.0037903008172193373 -0.011042499691061143 0 0 0 -0.024967971888900948 -0.034361572562282561 -0.0092508911781764291 0 -0.0092508911781764291 0.030346199588529604 0 0 0 -0.0010038432434382322 -0.031358401939711879 -0.016086730659125956 0 -0.016086730659125956 0.039077980979919644 0 0 0 0.0019298947600519326 -0.011878049340161984 -0.0023451367910531651 0 -0.0023451367910531651 0.044292131543996804 0 0 0 0.0081035205509587815 -0.0042922996949612546 -0.001600199093402227 0 -0.001600199093402227 0.087050483057652062 0 0 0 0.020689545840672618 -0.01357785169336273 0.004476796694582022 0 0.004476796694582022 0.026341491919448207 0 0 0 0.0031909100565213622 -0.0089806526572457912 0.0011095964282962778 0 0.0011095964282962778 0.074916514974896098 0 0 0 0.016483965579412563 -0.020169672345417125 -0.0073811567560646829 0 -0.0073811567560646829 0.037606326981630689 0 0 0 0.0043591636590533944 -0.032187658015006781 0.001257476254184809 0 0.001257476254184809 0.0076434289661693883 0 0 0 -0.0061360572622093353 -0.019520162879343855 -0.015561124761579106 0 -0.015561124761579106 0.032155954461764613 0 0 0 0.0031589478956051895 -0.033303338561257723 -0.017119836761825605 0 -0.017119836761825605 0.028384735081995932 0 0 0 -0.0012296508698154268 -0.029324754444666586 0.0006770943074299496 0 0.0006770943074299496 0.038517170997779404 0 0 0 0.0022981041382782071 -0.1066831518020166 0.013590633865421279 0 0.013590633865421279 -0.001025817522947392 0 0 0 -0.026927242331240775 -0.040549351805177963 -0.0047005429170458128 0 -0.0047005429170458128 0.041295293711049008 0 0 0 0.00018648547646776814 0.0084969466787524484 -0.012506511287580804 0 -0.012506511287580804 0.11071661740553929 0 0 0 0.029803391021072934 0.048164335599071822 -0.015480129114271407 0 -0.015480129114271407 0.057210414494667128 0 0 0 0.026343687523434772 0.013602015951907853 -0.011879824614845658 0 -0.011879824614845658 0.022809897590328143 0 0 0 0.009102978385559013 -0.1609777058637257 -0.013398479619909615 0 -0.013398479619909615 0.0040794539016882903 0 0 0 -0.039224562990509304 -0.091182375711107544 0.0048464406594022624 0 0.0048464406594022624 0.0013587531754965729 0 0 0 -0.022455905633902706 -0.041652707694809082 -0.0043505453161796492 0 -0.0043505453161796492 0.043854397615785815 0 0 0 0.00055042248024418303 -0.06419269335946165 0.033124031886633487 0 0.033124031886633487 -0.0053536831538201213 0 0 0 -0.017386594128320443 -0.045686642684099166 0.033130737849025982 0 0.033130737849025982 0.00081500040463344803 0 0 0 -0.011217910569866207 -0.020528863245292239 -0.025995142278185668 0 -0.025995142278185668 0.012600301415207849 0 0 0 -0.0019821404575210977 -0.013832539020670156 -0.022934603531952535 0 -0.022934603531952535 0.014832409490083433 0 0 0 0.00024996761735336057 -0.016582512693622264 -0.016830718819806467 0 -0.016830718819806467 0.044897875037915203 0 0 0 0.0070788405860732762 -0.021234861665883287 0.0088753074139991499 0 0.0088753074139991499 0.00054457456522705172 0 0 0 -0.0051725717751642808 -0.03977564644829143 0.004583571294327341 0 0.004583571294327341 -0.0061138800948979336 0 0 0 -0.011472381635797339 -0.037456686702432039 -0.006835296946353475 0 -0.006835296946353475 -0.013050805145296223 0 0 0 -0.012626872961932066 -0.023732363781887714 -0.028834262275321043 0 -0.028834262275321043 0.005660454653563865 0 0 0 -0.0045179772820809344 -0.023566092399522121 -0.026774241966319723 0 -0.026774241966319723 0.0059176052903620047 0 0 0 -0.0044121217772902233 -0.027388477147148801 -0.026955288709016423 0 -0.026955288709016423 0.002771173279195821 0 0 0 -0.0061543259669882139 -0.027923686699235561 -0.028827728959917948 0 -0.028827728959917948 0.0045225974122522494 0 0 0 -0.0058502723217458419 -0.040722287406277619 0.043499781911129354 0 0.043499781911129354 -0.0047735570849531395 0 0 0 -0.011373961122807447 -0.030633952650920483 0.039994749004244268 0 0.039994749004244268 -0.0038522017535981817 0 0 0 -0.0086215386011296666 -0.04414212772634557 0.0055512725756846591 0 0.0055512725756846591 -0.011325547361678328 0 0 0 -0.013866918772005972 -0.051938181637096598 -0.011208683565043433 0 -0.011208683565043433 -0.016241285594939332 0 0 0 -0.017044866808008981 -0.078576008705115025 -0.0087911464524079858 0 -0.0087911464524079858 0.0062231316995378649 0 0 0 -0.018088219251394283 -0.13637699779932114 0.019778334447301191 0 0.019778334447301191 0.0091904799253217373 0 0 0 -0.031796629468499871 -0.062457787024612056 0.0078601406251329331 0 0.0078601406251329331 0.0014122915438855577 0 0 0 -0.015261373870181637 -0.019135183390507664 0.0070515161503603933 0 0.0070515161503603933 0.006577118796506673 0 0 0 -0.0031395161485002435 -0.0051857353165982445 -0.010595012948443672 0 -0.010595012948443672 -0.020825025380800666 0 0 0 -0.0065026901743497068 -0.09843819407924595 -0.018015565317012851 0 -0.018015565317012851 0.0012308895126131036 0 0 0 -0.024301826141658218 -0.1292094018986715 -0.015266461747448088 0 -0.015266461747448088 -0.0030139487893894173 0 0 0 -0.033055837672015226 -0.011729315335176705 0.00057113917516992047 0 0.00057113917516992047 -0.012811755844469822 0 0 0 -0.006135267794911632 -0.024818408627365465 0.006190949104594265 0 0.006190949104594265 0.051264637989273804 0 0 0 0.0066115573404770811 -0.092155683882071696 -0.0010904365116174014 0 -0.0010904365116174014 -9.7201888016373861e-05 0 0 0 -0.023063221442522028 -0.16721969174916287 0.001388593043366193 0 0.001388593043366193 -0.00048960579232666668 0 0 0 -0.041927324385372312 -0.051461727601354298 -0.0051317696496386012 0 -0.0051317696496386012 0.0070157252658689939 0 0 0 -0.01111150058387135 -0.074104846741490718 -0.016592250674002974 0 -0.016592250674002974 -0.0097317367199429988 0 0 0 -0.020959145865358429 -0.054170092403702318 -0.015968550016763769 0 -0.015968550016763769 -0.0067657813437861109 0 0 0 -0.015233968436872129 0.00059665678029141578 0.065602486445671057 0 0.065602486445671057 0.12963067047423671 0 0 0 0.032556831813632003 -0.11992982999599455 -0.0066235158375148179 0 -0.0066235158375148179 8.290490505583753e-05 0 0 0 -0.029961731272734687 -0.077046663735334586 0.0027998771920798443 0 0.0027998771920798443 0.00034105998418123423 0 0 0 -0.019176400937788357 -0.023779637940248344 -0.010378139139964826 0 -0.010378139139964826 -0.012687419964085067 0 0 0 -0.0091167644760833666 -0.026292115354854151 -0.010462649505341905 0 -0.010462649505341905 -0.0088678700461685134 0 0 0 -0.0087899963502556522 -0.023514903267983046 0.0066672313431930322 0 0.0066672313431930322 0.030192370751269154 0 0 0 0.0016693668708215375 -0.020872160069959671 -0.0099713441273829879 0 -0.0099713441273829879 0.0012296776968225287 0 0 0 -0.0049106205932842803 -0.0093080418536553126 0.012249550789109789 0 0.012249550789109789 0.0040315538789294086 0 0 0 -0.0013191219936814734 -0.0038479384285723395 0.01644099856366793 0 0.01644099856366793 0.12009253874283732 0 0 0 0.029061150078566245 -0.062106215069682391 0.0071182970992092615 0 0.0071182970992092615 0.0023479738570663239 0 0 0 -0.014939560303154024 -0.028431924416575077 -0.00013343154002005021 0 -0.00013343154002005021 0.0053091389306128191 0 0 0 -0.0057806963714905736 0.052359183918859076 0.013197145798170395 0 0.013197145798170395 0.045855518341422652 0 0 0 0.024553675565070376 -0.059148001286699302 -0.008136041225814683 0 -0.008136041225814683 -0.0020967698990879829 0 0 0 -0.015311192796446904 -0.19966789423393988 -0.0013530320403316032 0 -0.0013530320403316032 -0.00049017342824653198 0 0 0 -0.050039516915546534 -0.10738602106525669 -0.000172322127529014 0 -0.000172322127529014 -0.00046092193353469701 0 0 0 -0.026961735749697804 -0.039426132600495267 -0.00013254600501232117 0 -0.00013254600501232117 0.049167247301085445 0 0 0 0.002435278675147555 -0.074872543225871308 -0.013317565133361317 0 -0.013317565133361317 -0.0051124576746899505 0 0 0 -0.01999625022514032 -0.090247121492287419 -0.018326642948610996 0 -0.018326642948610996 -0.0028932502588279382 0 0 0 -0.023285092937778827 0.023349745699792396 0.020259681447491851 0 0.020259681447491851 0.025287785112691946 0 0 0 0.012159382703121085 -0.040174855164162415 -0.0094863552586108429 0 -0.0094863552586108429 -0.0009091174924185097 0 0 0 -0.010270993164145259 -0.032355297557645921 -0.012962673393135254 0 -0.012962673393135254 0.0085920942564731151 0 0 0 -0.0059408008252932049 -0.0059545063215589167 0.019363657417474072 0 0.019363657417474072 0.085865623058514196 0 0 0 0.01997777918423882 -0.015897887971454527 -0.0056616420210624024 0 -0.0056616420210624024 0.0012180159897967613 0 0 0 -0.0036699679954143027 -0.039613064654539176 -0.024518571441873957 0 -0.024518571441873957 0.026325973030789374 0 0 0 -0.0033217729059374368 -0.022112084795672809 -0.0072732478677703591 0 -0.0072732478677703591 0.033349395375479485 0 0 0 0.0028093276449516758 -0.034383645039147981 -0.0011667928656906856 0 -0.0011667928656906856 0.011688307411369891 0 0 0 -0.0056738344069445501 -0.037676898078319532 0.0098936465492580616 0 0.0098936465492580616 -0.0012531110437485893 0 0 0 -0.0097325022805168082 -0.0099931925890162088 -0.016826805619851615 0 -0.016826805619851615 0.04608775094725126 0 0 0 0.0090236395895587629 -0.035978353086800724 0.0040212806053723533 0 0.0040212806053723533 -0.0019264583570855615 0 0 0 -0.0094762028609715662 0.0081183973863839104 -0.0032202558372457363 0 -0.0032202558372457363 0.037128179441683729 0 0 0 0.011311644207016899 -0.073562086831036877 0.0050779269707439652 0 0.0050779269707439652 0.00012395238255136221 0 0 0 -0.018359533612121365 -0.056653518344342776 -0.015184159284463389 0 -0.015184159284463389 0.020254383600441572 0 0 0 -0.0090997836859752768 -0.059307835172786511 0.0068650659371294991 0 0.0068650659371294991 -0.0022475397784803494 0 0 0 -0.015388843737816715 -0.064448724906082444 -0.0086052115415271024 0 -0.0086052115415271024 0.001315045592556352 0 0 0 -0.015783419828381384 -0.079383252014279482 0.0042962066935855053 0 0.0042962066935855053 -0.00068613462235425637 0 0 0 -0.020017346659158428 -0.069371112774446422 0.0054375828326759107 0 0.0054375828326759107 0.00030777025231835953 0 0 0 -0.017265835630531998 -0.068993554235678434 0.041779346509371207 0 0.041779346509371207 -0.00031591539051989415 0 0 0 -0.01732736740654961 -0.038428004481617754 -0.005670568977307066 0 -0.005670568977307066 -0.014314065300118698 0 0 0 -0.013185517445434117 -0.044069971038038627 -0.011256267700224989 0 -0.011256267700224989 -0.015185175412830505 0 0 0 -0.014813786612717282 -0.041153146193140908 0.0059600464516455023 0 0.0059600464516455023 -0.0088441904772199858 0 0 0 -0.012499334167590226 -0.039078008276308134 0.0035556711500971004 0 0.0035556711500971004 -0.010421090119326255 0 0 0 -0.012374774598908596 -0.027374998467302375 -0.0059188004583727409 0 -0.0059188004583727409 0.015486937813990118 0 0 0 -0.0029720151633280609 -0.022324566269186802 -0.025513591623886559 0 -0.025513591623886559 0.042355086036947896 0 0 0 0.0050076299419402745 -0.03364953103325654 -0.017541508798288613 0 -0.017541508798288613 0.01756974603842943 0 0 0 -0.0040199462487067921 -0.037668869335404476 -0.012153666951641717 0 -0.012153666951641717 0.028510269777760167 0 0 0 -0.0022896498894110495 -0.032604371188726597 -0.014427003607685729 0 -0.014427003607685729 0.016781807931968706 0 0 0 -0.0039556408141894622 -0.02338206238116905 -0.0027083300272896065 0 -0.0027083300272896065 0.03352323942047486 0 0 0 0.0025352942598264872 -0.025572123915046679 -0.0077539702073945727 0 -0.0077539702073945727 0.017737864424731797 0 0 0 -0.0019585648725787275 -0.11041539240082798 0.0018972785606325869 0 0.0018972785606325869 0.00052002010607832272 0 0 0 -0.027473843073687387 -0.21007065839578015 -0.0048858312926166403 0 -0.0048858312926166403 0.0033044469280164579 0 0 0 -0.051691552866940882 -0.014524517234588932 -0.0070847473958236817 0 -0.0070847473958236817 0.018272811500037234 0 0 0 0.00093707356636207884 -0.019874187791843329 -0.0045184730311920163 0 -0.0045184730311920163 0.038884930112333904 0 0 0 0.0047526855801226786 -0.056749433054993623 0.0054542643476166303 0 0.0054542643476166303 0.0074090697196776412 0 0 0 -0.012335090833829027 -0.017712978669009817 0.0039269687237031923 0 0.0039269687237031923 -0.0076822096161391872 0 0 0 -0.0063487970712872537 -0.031331259250592519 -0.011038818084205988 0 -0.011038818084205988 -0.0076580833142368757 0 0 0 -0.009747335641207366 -0.019475276775889092 -0.0041618227839669781 0 -0.0041618227839669781 -0.012438876020908606 0 0 0 -0.0079785381991994298 -0.017085485395252186 -0.036726851977751648 0 -0.036726851977751648 0.076368516519516164 0 0 0 0.014820757781065995 -0.073470082770146092 0.0024895124980189726 0 0.0024895124980189726 -0.0029901119340112817 0 0 0 -0.019115048676039366 -0.06745437429142033 0.0020786016160903708 0 0.0020786016160903708 -0.0014629089570700835 0 0 0 -0.017229320812122601 -0.092774253493513273 -0.0077137368203519475 0 -0.0077137368203519475 -0.001733811068601758 0 0 0 -0.023627016140528763 -0.10826442707747704 -0.0087029726484114563 0 -0.0087029726484114563 -0.0054816295508259526 0 0 0 -0.02843651415707573 -0.096773379813390681 -0.0061123922695903417 0 -0.0061123922695903417 0.0012154988328580973 0 0 0 -0.023889470245133104 -0.015100937706112372 0.061929764353296723 0 0.061929764353296723 0.079849897877912746 0 0 0 0.01618724004295008 0.0023929607990250124 -0.012691284832328342 0 -0.012691284832328342 0.026125226161096804 0 0 0 0.0071295467400304124 -0.010122752092723593 -0.0087191421957814597 0 -0.0087191421957814597 -0.019870698917388633 0 0 0 -0.00749836275252805 -0.041272422843943835 0.0052499466336582883 0 0.0052499466336582883 -0.0022055220826817882 0 0 0 -0.010869486231656405 -0.03981090412748553 -0.002502474207251245 0 -0.002502474207251245 0.035766508466151856 0 0 0 -0.0010110989153334221 -0.062784730114665677 0.0053563225484172129 0 0.0053563225484172129 -0.00064991855317651781 0 0 0 -0.015858662166960566 0.0060684493517366711 0.028390974989074946 0 0.028390974989074946 0.018423127958924201 0 0 0 0.0061228943276651071 -0.021580913338622467 0.0058353996906327166 0 0.0058353996906327166 -0.0079031740557524068 0 0 0 -0.0073710218485937189 -0.025383900648238075 -0.013776326002343214 0 -0.013776326002343214 -0.0076119132976925213 0 0 0 -0.0082489534864826214 0.023694188556439403 -0.050007250469006996 0 -0.050007250469006996 0.059969980679493981 0 0 0 0.020916042308983352 -0.17402612599068012 0.014492963759219379 0 0.014492963759219379 0.0018557584250018522 0 0 0 -0.043042591891419568 -0.013071237574113697 0.002723765707323759 0 0.002723765707323759 -0.0086039511730969052 0 0 0 -0.0054187971868026518 -0.04704877426254811 0.0030771275175011477 0 0.0030771275175011477 -0.011384588364632759 0 0 0 -0.014608340656795213 -0.053797964954483926 -0.0068226255956782816 0 -0.0068226255956782816 -0.015298385632443706 0 0 0 -0.017274087646731905 -0.015230550365911871 0.0097461208007592233 0 0.0097461208007592233 0.010903920445568101 0 0 0 -0.0010816574800859447 -0.083610754191248804 0.0041883269988413491 0 0.0041883269988413491 0.001736002005902626 0 0 0 -0.020468688046336558 -0.14270269656472429 -0.012413190636543253 0 -0.012413190636543253 0.0060593193843550552 0 0 0 -0.034160844295092252 -0.00053301415875095515 0.024769680518000992 0 0.024769680518000992 0.04431012665504408 0 0 0 0.010944278124073392 -0.036237980306420003 -0.012596976321960385 0 -0.012596976321960385 -0.0029899897498029127 0 0 0 -0.0098069925140559233 -0.017409215562227978 0.0031520620204899402 0 0.0031520620204899402 0.044813667060295576 0 0 0 0.0068511128745169098 -0.010382291479769351 -0.019794845076391239 0 -0.019794845076391239 0.010658048947980059 0 0 0 6.8939367052711642e-05 -0.026657437699537025 0.0016580775216048158 0 0.0016580775216048158 0.016972081569504249 0 0 0 -0.0024213390325081574 -0.019805256873014473 0.005668094663494409 0 0.005668094663494409 0.0045106271601649366 0 0 0 -0.0038236574282123886 -0.014360447238590207 0.00033336306123585323 0 0.00033336306123585323 -0.011471388473834216 0 0 0 -0.0064579589281061073 -0.035065481065634528 0.0037844920842287446 0 0.0037844920842287446 0.0018286678726406472 0 0 0 -0.0083092032982484722 -0.028419693782252051 -0.014416229259683971 0 -0.014416229259683971 0.09705005143858958 0 0 0 0.017157589414084393 -0.029905906814031491 -0.014755620940475358 0 -0.014755620940475358 0.089486175364515433 0 0 0 0.014895067137620968 -0.031618528911854571 -0.020014808253773553 0 -0.020014808253773553 -0.00037570038508261128 0 0 0 -0.0079985573242342678 -0.027841879666810176 -0.019038326875387923 0 -0.019038326875387923 -0.0005656195654633045 0 0 0 -0.0071018748080683425 -0.012588820261135503 0.034247579846475196 0 0.034247579846475196 0.020113854542466392 0 0 0 0.0018812585703327223 -0.01869617932891865 0.035794263139638183 0 0.035794263139638183 0.017309878702660875 0 0 0 -0.00034657515656433269 -0.012029252715750838 0.038084005567258591 0 0.038084005567258591 0.0092366406818773505 0 0 0 -0.00069815300846842732 0.015359216521246388 0.036139036713607964 0 0.036139036713607964 0.015403547178153509 0 0 0 0.0076906909248499744 -0.016666721738645807 0.0039087804990266721 0 0.0039087804990266721 -0.0055561226411155844 0 0 0 -0.0055557110949403469 -0.016141096948503131 0.0019143518448787589 0 0.0019143518448787589 0.058857426621640757 0 0 0 0.010679082418284386 -0.023562989255891495 -6.4693719562608498e-05 0 -6.4693719562608498e-05 0.029954451808572188 0 0 0 0.0015978656381701734 -0.066199448164228514 -0.012812991659452933 0 -0.012812991659452933 -0.00020817276778317684 0 0 0 -0.016601905233002978 -0.07515538067373706 -0.0049302945218189786 0 -0.0049302945218189786 -0.00030695073336223233 0 0 0 -0.018865582851774809 -0.12704698476577359 0.011589201243205505 0 0.011589201243205505 -0.00091213277811941218 0 0 0 -0.031989779385973249 -0.0028877326390273003 0.020593384616744134 0 0.020593384616744134 0.024077081170386441 0 0 0 0.005297337132839787 -0.00010376820333778125 0.022073821768622177 0 0.022073821768622177 0.030263455335027861 0 0 0 0.0075399217829225235 -0.01565097422208106 0.0055653703773255519 0 0.0055653703773255519 -0.0053226053495595144 0 0 0 -0.0052433948929101418 -0.018274419598158159 0.0047995962843103267 0 0.0047995962843103267 -0.0082720371309578447 0 0 0 -0.0066366141822790017 -0.12377021979140063 -0.012431205719862472 0 -0.012431205719862472 -0.0049109433747393516 0 0 0 -0.032170290791534988 -0.078092099477783755 0.0041501905450149756 0 0.0041501905450149756 -0.0010698407621889464 0 0 0 -0.019790485059993181 -0.070189643262704354 0.0064588735483523344 0 0.0064588735483523344 -0.0015825541474041582 0 0 0 -0.017943049352527118 -0.0039154206225144872 0.024864244301993077 0 0.024864244301993077 0.054955721242238909 0 0 0 0.01276007515493105 -0.029255254537606246 -0.0089376290647256162 0 -0.0089376290647256162 0.002432615370470792 0 0 0 -0.0067056597917837246 -0.017740795505075888 -0.00163991801647431 0 -0.00163991801647431 -0.0098794365942355758 0 0 0 -0.0069050580248278667 -0.0062009577764797121 0.00023749834812637587 0 0.00023749834812637587 -0.0082945624954295707 0 0 0 -0.0036238800679773212 -0.048032058607008932 -0.020090816120263422 0 -0.020090816120263422 0.004211042790087216 0 0 0 -0.010955253954230526 -0.043722736201939998 -0.015562903551244352 0 -0.015562903551244352 -0.0031169111196879817 0 0 0 -0.01170991183040699 -0.022768170648656307 -0.0074166255828416461 0 -0.0074166255828416461 0.021051989894834422 0 0 0 -0.0004290451884554989 0.0031789271327277158 0.015691145826295591 0 0.015691145826295591 0.012565219152253324 0 0 0 0.0039360365712452633 -0.069386511300949943 0.043013093262857405 0 0.043013093262857405 0.0025248538899204087 0 0 0 -0.016715414352757446 -0.074329505182274894 0.00025630223059885937 0 0.00025630223059885937 0.00338515136791534 0 0 0 -0.017736088453589857 -0.12598624137700271 -0.00067596511196754694 0 -0.00067596511196754694 0.0090050640210446176 0 0 0 -0.029245294338989536 -0.0029695789800214811 -0.0033608038015819908 0 -0.0033608038015819908 -0.029292054282382685 0 0 0 -0.0080654083156010969 -0.0082828492045077251 -0.0074182905453613335 0 -0.0074182905453613335 -0.034463044395358966 0 0 0 -0.010686473399966645 -0.061497275112368376 0.0070332882748163419 0 0.0070332882748163419 -0.00026824903980879333 0 0 0 -0.015441381038044292 -0.052828770767231858 0.0056284274782745156 0 0.0056284274782745156 -0.0011313835365968847 0 0 0 -0.013490038575957177 -0.027684079051133754 -0.0015999247617332728 0 -0.0015999247617332728 0.012840893169102627 0 0 0 -0.0037107964705077774 -0.079622542066762281 0.0075718558355150727 0 0.0075718558355150727 0.0018374388762872063 0 0 0 -0.019446275797618762 -0.084717165653749829 -0.017669195049722166 0 -0.017669195049722166 -0.0066906634744206273 0 0 0 -0.0228519572820426 -0.00090098977403175302 0.00096647630957819031 0 0.00096647630957819031 -0.028295728204740321 0 0 0 -0.0072991794946930047 -0.051950323462852444 0.051550984109943465 0 0.051550984109943465 0.0054249005514259707 0 0 0 -0.011631355727856563 -0.018846808585672909 0.004543601205686267 0 0.004543601205686267 -0.0062828884828362132 0 0 0 -0.0062824242671272821 0.030125446393539812 0.014844013876184503 0 0.014844013876184503 0.051073035018045054 0 0 0 0.020299620352896064 0.024530030875759039 0.03107114928816658 0 0.03107114928816658 0.079235739562886112 0 0 0 0.025941442609661285 -0.11798143699110458 0.010791705832720322 0 0.010791705832720322 0.02037826088975149 0 0 0 -0.02440079402533829 0.0052461581116702433 0.033133106105209691 0 0.033133106105209691 0.084853738566151971 0 0 0 0.022524974169455522 0.01568383241040569 0.027792483912458386 0 0.027792483912458386 0.055315660311846537 0 0 0 0.017749873180563078 -0.045748929277186101 0.0062768388934942194 0 0.0062768388934942194 0.00081596001619502201 0 0 0 -0.011233242315247759 -0.030381099597274624 0.0033105220624362868 0 0.0033105220624362868 -0.0018628667406638084 0 0 0 -0.0080609915844846031 -0.10971054744508091 0.034028118215279846 0 0.034028118215279846 0.011084927395841104 0 0 0 -0.024656405012310034 -0.040655389805201239 -0.012179798783495885 0 -0.012179798783495885 0.04427935808582617 0 0 0 0.00090599207015622241 -0.013649782214171844 0.021871837459624996 0 0.021871837459624996 0.092049995794047296 0 0 0 0.019600053394968855 -0.031608427631636127 -0.017322959109770913 0 -0.017322959109770913 0.0020149243207816525 0 0 0 -0.0073983758277135908 -0.088040495942733929 -0.0028762485793341341 0 -0.0028762485793341341 0.0025015482080741891 0 0 0 -0.021384736933664928 -0.15582374506250141 0.0067080260791932966 0 0.0067080260791932966 0.0088081277056316631 0 0 0 -0.03675390433921738 -0.042016755354575497 0.021017173499605191 0 0.021017173499605191 -0.0062497642904912887 0 0 0 -0.012066629911266502 -0.016475227032868189 -0.022772415018822545 0 -0.022772415018822545 0.021753342497369266 0 0 0 0.0013195288661252969 -0.031416904648241512 -0.012356191265102776 0 -0.012356191265102776 0.015566136381627793 0 0 0 -0.0039626920666534504 0.0094189687020830096 0.016768195462328619 0 0.016768195462328619 0.014022556457489149 0 0 0 0.0058603812898930449 -0.075780541611099345 -0.01685280967103514 0 -0.01685280967103514 -0.011047716633137184 0 0 0 -0.021707064561059131 -0.073041268927855785 0.0050791211045314311 0 0.0050791211045314311 0.001686898581592905 0 0 0 -0.017838592586565727 -0.10460177627236428 -0.0094518737912802908 0 -0.0094518737912802908 0.0056509805741952121 0 0 0 -0.024737698924542244 -0.019835131500208936 -0.018574899254687825 0 -0.018574899254687825 0.035139880334251916 0 0 0 0.0038261872085107312 -0.057080085006919301 0.0032639550231080422 0 0.0032639550231080422 0.0029123766163186779 0 0 0 -0.013541927097650175 -0.028185419688310127 0.0055483232018345256 0 0.0055483232018345256 0.07517858231066854 0 0 0 0.011748290655589607 -0.015222518251464584 -5.3543827348433082e-05 0 -5.3543827348433082e-05 -0.0050729066923884368 0 0 0 -0.0050738562359632566 -0.026214441285309337 -0.0087242688101012433 0 -0.0087242688101012433 0.0086661226333949459 0 0 0 -0.0043870796629786324 -0.087906692268157532 0.0022702922022218991 0 0.0022702922022218991 0.0019732656445603652 0 0 0 -0.021483356655899285 -0.15264139047940717 -0.0078316810598406394 0 -0.0078316810598406394 0.0043972652339144824 0 0 0 -0.037061031311373158 -0.067166991601196741 -0.015339087225524184 0 -0.015339087225524184 0.0053452162369270195 0 0 0 -0.015455443841067486 -0.030992804103980046 -0.015386901353980742 0 -0.015386901353980742 0.024227708219895172 0 0 0 -0.0016912739710212149 -0.022713163299287603 -0.010992496877559557 0 -0.010992496877559557 0.045082277994621167 0 0 0 0.0055922786738333563 -0.042498048757356625 0.004077543190058347 0 0.004077543190058347 0.003130544429172627 0 0 0 -0.0098418760820459875 -0.032890399516578156 -0.0159814938384851 0 -0.0159814938384851 0.0033890378103635377 0 0 0 -0.0073753404265536615 -0.049845995469374266 -0.018688432490546969 0 -0.018688432490546969 0.0012054576841268455 0 0 0 -0.012160134446311952 -0.051480597880961015 0.004377075271299595 0 0.004377075271299595 0.0028689467194500454 0 0 0 -0.012152912790377727 -0.030395518601852828 -0.017743470648082793 0 -0.017743470648082793 0.0026431032240809005 0 0 0 -0.0069381038444429194 -0.015397279756223816 0.0002659708756631508 0 0.0002659708756631508 -0.012151430875135887 0 0 0 -0.0068871776578399253 -0.090174213804202333 0.00097453355981738654 0 0.00097453355981738654 0.0014755719308963688 0 0 0 -0.02217466046832646 -0.16289080180911256 -0.0023912619686705106 0 -0.0023912619686705106 0.0021462977253453586 0 0 0 -0.040186126020941709 -0.044102821764287981 -0.0080491289518624942 0 -0.0080491289518624942 -0.0026048807615156044 0 0 0 -0.011676925631450896 0.015096291359816161 0.016672753018240227 0 0.016672753018240227 0.064299627609333831 0 0 0 0.019848979742287276 0.0068477358455564241 0.023338183922478661 0 0.023338183922478661 0.047353944299329598 0 0 0 0.013550420036221644 -0.033396451095556556 -0.0067435611796513037 0 -0.0067435611796513037 -0.0022502489270803672 0 0 0 -0.0089116750056592586 0.011125743590196358 0.014318353741994742 0 0.014318353741994742 0.084333288050999933 0 0 0 0.023864757910299073 -0.010951975519848001 -0.013516591207689022 0 -0.013516591207689022 0.0086264450670993087 0 0 0 -0.00058138261318718687 -0.039730974106420361 -0.015500175150381781 0 -0.015500175150381781 0.011683407760413378 0 0 0 -0.0070118915865017284 0.0047640336127044991 0.00043539854341017003 0 0.00043539854341017003 0.061283796116109901 0 0 0 0.016511957432203683 0.0019599646698894579 -0.0029726522010419254 0 -0.0029726522010419254 0.11251798679356362 0 0 0 0.028619487865863213 -0.1016086401044764 -0.014089076336168793 0 -0.014089076336168793 0.020197251306186659 0 0 0 -0.020352847199572477 -0.049551606247744961 0.0050324498912509407 0 0.0050324498912509407 -0.0015020224322661174 0 0 0 -0.01276340717000277 -0.015192128033906351 0.0074655147540401701 0 0.0074655147540401701 -0.0014962658973494136 0 0 0 -0.004172098482813939 -0.072782489104547432 0.037825618400475991 0 0.037825618400475991 -0.0037209134818354528 0 0 0 -0.019125850646595888 -0.0036904352920776318 -0.020614579827868351 0 -0.020614579827868351 0.014765765889785065 0 0 0 0.002768832649426789 -0.013197862118249651 0.0013921710325348988 0 0.0013921710325348988 -0.0087731991965893409 0 0 0 -0.0054927653287097488 -0.044336128299105354 0.0029444654429865852 0 0.0029444654429865852 0.010725690081701905 0 0 0 -0.0084026095543508726 0.029261295351059369 0.014462679489647851 0 0.014462679489647851 0.050471688936602366 0 0 0 0.019933246071915489 -0.028816054068910725 -0.0079145843512283577 0 -0.0079145843512283577 -0.013949757927507566 0 0 0 -0.010691452999104567 -0.021858796473338084 -0.0062503639631943941 0 -0.0062503639631943941 0.00031367445809982186 0 0 0 -0.0053862805038095776 -0.016417168475112553 -0.010421723289696871 0 -0.010421723289696871 0.001941824046447797 0 0 0 -0.0036188361071661894 -0.0064695645668589874 0.0059203992043007914 0 0.0059203992043007914 0.020777948625102627 0 0 0 0.0035770960145608544 0.0025177116770872254 0.0016278034781626871 0 0.0016278034781626871 0.059119360044801117 0 0 0 0.01540926793047212 0.0052976466852345805 -0.0069140262574524103 0 -0.0069140262574524103 0.10449455971498361 0 0 0 0.027448051600054535 -0.0082171225668177875 -0.011238184337401091 0 -0.011238184337401091 0.045800765604006727 0 0 0 0.0093959107592971811 -0.0086155488700452205 0.017264909084505682 0 0.017264909084505682 0.02808470051961294 0 0 0 0.0048672879123919238 -0.0088192137600823853 -0.017681392208523626 0 -0.017681392208523626 -0.0044815741600136294 0 0 0 -0.0033251969800240019 0.0030717130076022845 -0.03513516138345129 0 -0.03513516138345129 0.030516376450272113 0 0 0 0.0083970223644685982 -0.046774423481224042 -0.015639401725604074 0 -0.015639401725604074 0.0031430751950724534 0 0 0 -0.010907837071538001 -0.062062174961993372 0.0054858330209544394 0 0.0054858330209544394 0.0011381041754209703 0 0 0 -0.015231017696643086 -0.052480860558984571 0.0070893154135877661 0 0.0070893154135877661 0.0020572790979075661 0 0 0 -0.012605895365269265 -0.098035771011036763 0.0052703322098956867 0 0.0052703322098956867 0.040116757321155438 0 0 0 -0.014479753422470293 -0.015345684233066148 0.0013414193237051564 0 0.0013414193237051564 0.0095092536135076289 0 0 0 -0.001459107654889602 -0.014181266635134943 -0.0099242062449969304 0 -0.0099242062449969304 0.02497178364237107 0 0 0 0.0026976292518089973 -0.014838305433988418 0.0082019809523959982 0 0.0082019809523959982 0.0044481629769145721 0 0 0 -0.0025975356142684614 6.7372080353345076e-05 2.6970058330133551e-05 0 2.6970058330133551e-05 -0.031058386237547753 0 0 0 -0.0077477535392986296 -0.022025951299730222 0.0045442339522805157 0 0.0045442339522805157 -0.0052788494830614922 0 0 0 -0.0068262001956979328 -0.031604073174877081 -0.017618823161657554 0 -0.017618823161657554 0.013725027647784938 0 0 0 -0.0044697613817730047 -0.012585577972640864 0.0015037396288626937 0 0.0015037396288626937 -0.012712084962317351 0 0 0 -0.006324415733739556 -0.020863980258912784 0.044134948271731256 0 0.044134948271731256 0.0014215274187203697 0 0 0 -0.0048606132100481592 -0.023011680857194988 0.04087813842928556 0 0.04087813842928556 0.0021325129077249261 0 0 0 -0.0052197919873673559 -0.02398371597199888 -0.024478646953933314 0 -0.024478646953933314 0.0020241609612634825 0 0 0 -0.0054898887526838511 0.015957972828329326 -0.069888810561441181 0 -0.069888810561441181 0.12391993628116831 0 0 0 0.0349694772773744 -0.013887472095189334 0.0021078001267182647 0 0.0021078001267182647 -0.010852483852212248 0 0 0 -0.0061849889868503954 -0.045405473523870921 -0.0094292527958348415 0 -0.0094292527958348415 0.0025425869121245004 0 0 0 -0.010715721652936661 0.00097564860532206588 0.00038803963601341529 0 0.00038803963601341529 -0.00010539778905149788 0 0 0 0.00021756270406747547 -0.0068714708447272788 0.0061082681609556655 0 0.0061082681609556655 0.11936963774361775 0 0 0 0.028124541724722452 0.0097335537026241436 0.0012823034019544544 0 0.0012823034019544544 0.096513890308704484 0 0 0 0.026561861002831935 0.005802570697255538 -0.0028894736003524102 0 -0.0028894736003524102 0.049146316609095297 0 0 0 0.013737221826587653 0.0014557916600002052 -0.0006080897685217106 0 -0.0006080897685217106 -8.6599541491594323e-05 0 0 0 0.00034229802962748579 -0.00033250509166263221 0.00055464777242986152 0 0.00055464777242986152 0.0010586127007179715 0 0 0 0.00018152690226389033 -0.0049038418915263726 -0.0071842624903025454 0 -0.0071842624903025454 0.067409346043861618 0 0 0 0.015626376038083922 -0.00036179147041481841 -0.00086620830029149332 0 -0.00086620830029149332 0.0016100732753763225 0 0 0 0.00031207045124004296 -0.016271651679686423 0.00081037692854428662 0 0.00081037692854428662 -0.010022141176525213 0 0 0 -0.006573448214052909 -0.027869384713181379 -0.016651928972854751 0 -0.016651928972854751 -0.0029736484318718601 0 0 0 -0.0077107582862632803 -0.05133893033090918 0.0060071822506334166 0 0.0060071822506334166 0.0057235289793286792 0 0 0 -0.011403850337895094 -0.040561660427488044 -0.022143501127915577 0 -0.022143501127915577 0.0040252577641035625 0 0 0 -0.0091341006658460788 -0.020912147574561293 -0.0016812040399129197 0 -0.0016812040399129197 -0.012816504554317975 0 0 0 -0.0084321630322198235 -0.024532425882599407 0.033176012290230039 0 0.033176012290230039 -0.0076978834994898548 0 0 0 -0.008057577345522704 -0.019531226245414701 -0.026887869621708194 0 -0.026887869621708194 0.0012478985003381293 0 0 0 -0.0045708319362690597 -0.0036707803898751723 -0.004963987353549637 0 -0.004963987353549637 0.048025207367784928 0 0 0 0.011088606744477425 -0.0057860052230106207 -0.00076857408102309899 0 -0.00076857408102309899 0.089702843241437125 0 0 0 0.020979209504606633 -0.03947810811015906 0.0072266221998810581 0 0.0072266221998810581 0.042557869816559374 0 0 0 0.0007699404266000992 -0.04678540227027804 0.0015596763001978209 0 0.0015596763001978209 0.0058753455441075964 0 0 0 -0.010227514181542594 -0.022225231917383903 -0.0098058490263691501 0 -0.0098058490263691501 0.033792405033456485 0 0 0 0.0028917932790181733 -0.016987830036736609 0.0048495186954479186 0 0.0048495186954479186 0.067860457912405747 0 0 0 0.012718156968917274 -0.024294627411663244 -0.025328548795531258 0 -0.025328548795531258 0.0066244681120062321 0 0 0 -0.0044175398249143016 -0.012819044776851793 0.007392824228154047 0 0.007392824228154047 -0.00070345275691516621 0 0 0 -0.0033806243834417389 -0.021155627419208844 -0.02760844395290718 0 -0.02760844395290718 0.0092288269489835262 0 0 0 -0.0029817001175562741 -0.03262037441249932 0.03123140351817133 0 0.03123140351817133 -0.0025326507139169507 0 0 0 -0.0087882562816039567 -0.024241803714127708 -0.0016270936166608158 0 -0.0016270936166608158 0.014656346276095356 0 0 0 -0.0023963643595081019 -0.015196714701476099 -0.00282975180110491 0 -0.00282975180110491 0.017668666264194166 0 0 0 0.00061798789067951665 -0.034609875341496371 0.0042165833272325409 0 0.0042165833272325409 -0.0021818180552680482 0 0 0 -0.009197923349191112 -0.035296188859375008 -0.0043103043833035704 0 -0.0043103043833035704 0.0297264698707881 0 0 0 -0.0013924297471466923 0.011857271582512305 -0.02085297675670672 0 -0.02085297675670672 0.016166435437167781 0 0 0 0.0070059267549199972 -0.026370368871541414 -0.017518795658481523 0 -0.017518795658481523 -7.5061498226263595e-05 0 0 0 -0.0066113575924419271 0.037368736263444668 -0.015099449931115339 0 -0.015099449931115339 0.019867793464060535 0 0 0 0.01430913243187637 -0.017793115765681766 -0.0050443413884652122 0 -0.0050443413884652122 0.037662361455949311 0 0 0 0.0049673114225669002 -0.027634187040928987 -0.0072782081966929202 0 -0.0072782081966929202 0.0077424677563396882 0 0 0 -0.0049729298211473594 -0.056981245443373789 0.004904795413121301 0 0.004904795413121301 -0.0016722737563275476 0 0 0 -0.014663379799925323 -0.034687149106626569 -0.0069156515236383463 0 -0.0069156515236383463 0.034485620435912731 0 0 0 -5.0382167678456047e-05 -0.035040149001639383 -0.0058574468844956075 0 -0.0058574468844956075 0.042345654317256939 0 0 0 0.0018263763289043874 0.025272488628857268 0.049521883187068717 0 0.049521883187068717 0.14251626901491393 0 0 0 0.041947189410942817 -0.018172107766401921 -0.012537324180941112 0 -0.012537324180941112 0.16289200425692074 0 0 0 0.036179974122629702 0.017624031628832082 0.015375903599555443 0 0.015375903599555443 0.061741786567682588 0 0 0 0.019841454549128557 -0.015362268573171849 0.019187359525912315 0 0.019187359525912315 0.037193114805877087 0 0 0 0.0054577115581763147 -0.049755955018435216 -0.0078807455299168168 0 -0.0078807455299168168 0.00053793252482048359 0 0 0 -0.012304505623403905 -0.034926360916429505 0.0043855682483590376 0 0.0043855682483590376 -0.0039073146114152295 0 0 0 -0.0097084188819611845 -0.0721976215795396 -0.0089291417239664439 0 -0.0089291417239664439 -0.01110968116387389 0 0 0 -0.020826825685853371 -0.057360023214452695 0.0027777892781974478 0 0.0027777892781974478 -0.0066651604791664789 0 0 0 -0.016006295923404794 -0.0059960054694052738 0.0037654860666466623 0 0.0037654860666466623 -0.0097511628007223156 0 0 0 -0.0039367920675318982 -0.079890700444469623 -0.0053551365036513705 0 -0.0053551365036513705 -0.0012332659297558906 0 0 0 -0.020280991593556383 -0.070323839019482637 -0.0059146889190426176 0 -0.0059146889190426176 -0.015471028385339265 0 0 0 -0.021448716851205474 -0.11055639959785725 0.004316146239199738 0 0.004316146239199738 -0.00033870561415889899 0 0 0 -0.027723776303004041 -0.097967405861205392 0.0047962748600330818 0 0.0047962748600330818 -0.02050073595543897 0 0 0 -0.029617035454161098 -0.040807640272882889 -0.014162837938020867 0 -0.014162837938020867 0.017417889667645514 0 0 0 -0.0058474376513093229 -0.011333292972833016 0.0030186638407531043 0 0.0030186638407531043 -0.0095691784107756646 0 0 0 -0.0052256178459021705 0.025069357506117829 0.025695587816582988 0 0.025695587816582988 0.018663212568470033 0 0 0 0.010933142518646743 -0.016682914388022302 0.0011626217074259398 0 0.0011626217074259398 0.056871830165661663 0 0 0 0.01004722894440982 -0.0048563948517231156 0.026590929830151953 0 0.026590929830151953 0.056983621270556499 0 0 0 0.013031806604708353 -0.023582292589060805 -0.024688134688143057 0 -0.024688134688143057 0.024350570884466016 0 0 0 0.00019206957385128898 -0.0034760059359283096 0.00078313155880538332 0 0.00078313155880538332 0.0039656848745208469 0 0 0 0.0001224197346480234 0.0012394067619634886 -0.0057863698155067311 0 -0.0057863698155067311 0.0095207139789498726 0 0 0 0.0026900301852283404 0.0017152785200779414 0.0060091329306635188 0 0.0060091329306635188 0.027551304660202038 0 0 0 0.0073166457950701053 -0.0026095592050767152 -0.0008277762659816279 0 -0.0008277762659816279 0.0020408036150288459 0 0 0 -0.00014218889751199513 -0.0097320927965563117 0.0057984754034027808 0 0.0057984754034027808 -0.0049856531546175753 0 0 0 -0.0036794364877934735 -0.010366649193161936 -0.01276814637983123 0 -0.01276814637983123 -0.0037264055783311489 0 0 0 -0.0035232636928732575 -0.075775032089408167 -0.0096881358335483749 0 -0.0096881358335483749 -0.025212787644240637 0 0 0 -0.025246954933412207 -0.10460115929753092 0.0099858114395065655 0 0.0099858114395065655 -0.034802784318623145 0 0 0 -0.034850985904038512 -0.11870251792400746 0.010336198609961197 0 0.010336198609961197 -0.01608454005851008 0 0 0 -0.033696764495629389 -0.086467963524576696 -0.0097252257508775655 0 -0.0097252257508775655 -0.01203149116216776 0 0 0 -0.024624863671686113 -0.023016766047767895 -0.027021399146064551 0 -0.027021399146064551 0.0090679095315914227 0 0 0 -0.0034872141290440417 -0.034939227945082772 0.0043849223779669766 0 0.0043849223779669766 0.0017159891013863726 0 0 0 -0.0083058097109241016 -0.029133034633747418 -0.018069396813862784 0 -0.018069396813862784 0.0067030810802196084 0 0 0 -0.0056074883883819454 -0.027246619919840842 -0.017925403725663758 0 -0.017925403725663758 -0.00030226693506874014 0 0 0 -0.0068872217137274372 -0.029226373747851565 0.003527624218626995 0 0.003527624218626995 0.0020024597795745454 0 0 0 -0.0068059784920692541 -0.018690344109516772 0.0049374000137232445 0 0.0049374000137232445 -0.0041171808802630272 0 0 0 -0.0057018812474449471 -0.018569510866462646 0.0055667663112578415 0 0.0055667663112578415 -0.0037094258646861999 0 0 0 -0.0055697341827872079 -0.035953387064245973 -0.031527510859524377 0 -0.031527510859524377 0.10201616148657811 0 0 0 0.016515693605583026 0.014288560854640815 -0.0046032534023892346 0 -0.0046032534023892346 0.29310907246237711 0 0 0 0.076849408329254493 -0.051624449369818547 -0.0094330519117620804 0 -0.0094330519117620804 0.012185914027665917 0 0 0 -0.0098596338355381383 -0.018188748287567474 -0.0027099608125699462 0 -0.0027099608125699462 0.033452545448562576 0 0 0 0.0038159492902488101 -0.027075542728404012 -0.01022842823397549 0 -0.01022842823397549 0.020988879565264018 0 0 0 -0.0015216657907849984 -0.018958525302236393 0.0065571770076364106 0 0.0065571770076364106 0.0052594049987827532 0 0 0 -0.003424780075863415 -0.013396629086368628 0.027989125513220969 0 0.027989125513220969 0.038327796138249326 0 0 0 0.0062327917629699803 -0.025036500782384175 -0.012148616353763408 0 -0.012148616353763408 -0.0016759962863441835 0 0 0 -0.0066781242671820618 0.012445556636812447 -0.023366483155608575 0 -0.023366483155608575 0.046409643654881705 0 0 0 0.014713800072923541 -0.012157237541663871 -0.0039974622504318491 0 -0.0039974622504318491 0.011803792187864787 0 0 0 -8.8361338449766819e-05 -0.037747963158031528 0.024608615228572273 0 0.024608615228572273 0.0018113008873594794 0 0 0 -0.0089841655676683452 -0.018859922980196564 -0.023823603077216648 0 -0.023823603077216648 0.019832320729063602 0 0 0 0.00024309943721678717 -0.011245317687975542 -0.020871706219398087 0 -0.020871706219398087 0.018049865544400578 0 0 0 0.0017011369641062313 -0.017575993665109674 -0.0022621744031619262 0 -0.0022621744031619262 -0.012564863066938603 0 0 0 -0.00753521418301209 -0.014562090002222555 -0.007614392598033759 0 -0.007614392598033759 0.044580114731971265 0 0 0 0.0075045061824371706 -0.018904120364855184 -0.0078233446771947927 0 -0.0078233446771947927 -0.0093790583496633495 0 0 0 -0.0070707946786296265 -0.015181012586551017 -0.0066420399224535465 0 -0.0066420399224535465 -0.034732689054833676 0 0 0 -0.01247842541034621 -0.039155740875471121 0.0052320911007270382 0 0.0052320911007270382 -0.0045382838880484158 0 0 0 -0.01092350619087989 -0.034365231268388002 0.0053106391815919774 0 0.0053106391815919774 -0.0054053458181788387 0 0 0 -0.0099426442716417131 -0.034598913121452475 -0.0020258060913677031 0 -0.0020258060913677031 0.024775547108102217 0 0 0 -0.0024558415033375841 -0.036534232522138554 -0.012186446316494889 0 -0.012186446316494889 0.029301403440099349 0 0 0 -0.0018082072705097596 -0.027670913945670568 0.0031711045138679067 0 0.0031711045138679067 -0.0035873424592701188 0 0 0 -0.007814564101235176 -0.024873210119241703 0.004643054345035238 0 0.004643054345035238 0.002681735809406862 0 0 0 -0.0055478685774587111 -0.02731359651035906 0.0034493955251728948 0 0.0034493955251728948 0.0019791271454822224 0 0 0 -0.0063336173412192089 -0.0095131787402899792 0.0072865969203296244 0 0.0072865969203296244 -0.026504255041895131 0 0 0 -0.0090043584455463399 -0.0035383740834163957 0.0086123240370691578 0 0.0086123240370691578 -0.0078589076350799036 0 0 0 -0.0028493204296241026 -0.004044965877159766 -0.013411800601222101 0 -0.013411800601222101 -0.00035272565795618771 0 0 0 -0.0010994228837790318 -0.010672370979560114 -0.011586569716377393 0 -0.011586569716377393 -0.020235037179060278 0 0 0 -0.007726852039655091 -0.0074949117670902593 -0.030449072994960823 0 -0.030449072994960823 0.1010481139640349 0 0 0 0.023388300549236157 -0.0022732160914147315 0.018698901070824281 0 0.018698901070824281 0.01881422133042765 0 0 0 0.0041352513097536736 -0.0010181162964395529 -0.0030827607722859751 0 -0.0030827607722859751 -0.0049358107052794864 0 0 0 -0.0014884817504297043 -0.0021088628452427538 -0.015421871536245746 0 -0.015421871536245746 0.0065419684314846904 0 0 0 0.0011082763965604703 -0.0011757294251926176 0.003795866866527664 0 0.003795866866527664 -0.0061282793222185994 0 0 0 -0.0018260021868530263 -0.041477471281885503 0.032914405522168066 0 0.032914405522168066 -0.0043668532044991437 0 0 0 -0.011461081121596273 -0.021839157398273801 -0.027507154298078693 0 -0.027507154298078693 0.0092409972020779385 0 0 0 -0.0031495400490487713 -0.014445953259059841 -0.025091662048561281 0 -0.025091662048561281 0.010206805512845252 0 0 0 -0.0010597869365536194 -0.030207164203174448 -0.0044682826650971723 0 -0.0044682826650971723 0.03477644036641165 0 0 0 0.0011423190408092975 0.00044071520006205844 0.012072119135544679 0 0.012072119135544679 0.0034195878692937498 0 0 0 0.00096507576733895206 -0.00035511556547329626 -0.00089784404953313635 0 -0.00089784404953313635 -0.0001599861431653693 0 0 0 -0.0001287754271597219 -0.00074343489429518073 0.00071875657299069751 0 0.00071875657299069751 0.00066914661160577538 0 0 0 -1.857207067246236e-05 -0.00080769546599335218 -0.0099783818690664106 0 -0.0099783818690664106 -0.0058734445447399253 0 0 0 -0.0016702850026830696 -0.021665985675791255 -0.0045937249720593987 0 -0.0045937249720593987 -0.023119482216298004 0 0 0 -0.011196366973022231 0.015947248524228991 -0.023991982098483022 0 -0.023991982098483022 0.0060853447950008355 0 0 0 0.0055081483298074496 0.010609793300746614 0.00095094588041422234 0 0.00095094588041422234 0.058284950490887139 0 0 0 0.017223685947908393 0.015080264173582825 -0.0046433245929869971 0 -0.0046433245929869971 0.10911804020812843 0 0 0 0.031049576095427855 -0.014882697556168112 0.0058416899889994359 0 0.0058416899889994359 -0.0056853223005439157 0 0 0 -0.0051420049641780086 -0.066021807017272671 0.032713688511718075 0 0.032713688511718075 0.0015163479019495441 0 0 0 -0.016126364778830782 -0.07059646835541189 0.029853107271331079 0 0.029853107271331079 -0.0017234779956538659 0 0 0 -0.018079986587766328 -0.022407748424662172 -0.0068984635164024422 0 -0.0068984635164024422 -0.011960422435478655 0 0 0 -0.0085920427150352491 -0.026593259634140016 -0.00088919555650753511 0 -0.00088919555650753511 0.011329549412501812 0 0 0 -0.0038159275554095554 -0.032766121498938691 -0.017703712321384818 0 -0.017703712321384818 0.00543135783798546 0 0 0 -0.0068336909152382948 -0.027052903608224967 -0.02115346192735057 0 -0.02115346192735057 0.016951042889357362 0 0 0 -0.0025254651797169177 -0.043797437696535324 0.03364373992605274 0 0.03364373992605274 -0.0042405708764610139 0 0 0 -0.01200950214324914 -0.0203913926775251 -0.025752898301225485 0 -0.025752898301225485 0.010869721715735636 0 0 0 -0.0023804177404475046 -0.022660097178267113 -0.026896694580655689 0 -0.026896694580655689 0.0088087147946622757 0 0 0 -0.003462845595901265 -0.068914641534775778 0.0017586519297509099 0 0.0017586519297509099 -0.0065493930263122533 0 0 0 -0.018866008640272013 -0.095995787789945788 -0.0084690246030500287 0 -0.0084690246030500287 -0.01103715413933168 0 0 0 -0.026758235482319377 -0.087920757170182717 -0.012177242731300286 0 -0.012177242731300286 -0.00072924684045144045 0 0 0 -0.022162501002658527 -0.065131581954765233 0.0040409340706908398 0 0.0040409340706908398 -0.00083208595289606217 0 0 0 -0.016490916976915335 -0.030761911643805744 -0.0019055833084193159 0 -0.0019055833084193159 0.016726375277343376 0 0 0 -0.0035088840916155796 -0.061329653068395551 0.026625072213553258 0 0.026625072213553258 -0.0050432956628094772 0 0 0 -0.016593237182801257 -0.012942089886571195 -0.022263379747261336 0 -0.022263379747261336 0.019112298869818689 0 0 0 0.0015425522458117902 -0.014157708305037264 -0.022870888382118509 0 -0.022870888382118509 0.015177275054126138 0 0 0 0.00025489168727221845 -0.042707648561224783 -0.025490285668405832 0 -0.025490285668405832 0.0072853017323878388 0 0 0 -0.0088555867072091579 -0.024469398334700868 -0.0057289974751802974 0 -0.0057289974751802974 -0.016110832652503515 0 0 0 -0.010145057746801148 -0.01232171571314046 -0.01373671141899767 0 -0.01373671141899767 -0.0048377602621317295 0 0 0 -0.004289868993818044 -0.026114730771062369 -0.0055795179084087727 0 -0.0055795179084087727 0.011436695752826215 0 0 0 -0.0036695087545590421 -0.057405380470169506 0.0058978844493410391 0 0.0058978844493410391 -0.0037641501048390116 0 0 0 -0.015292382643752121 -0.075051060321148333 0.04749270843554676 0 0.04749270843554676 0.013636127427578082 0 0 0 -0.015353733223392674 -0.048798004924402005 -0.021797286108888148 0 -0.021797286108888148 0.0084601788472855599 0 0 0 -0.010084456519279139 -0.015326689455497713 0.036635799495944976 0 0.036635799495944976 0.010231652822333764 0 0 0 -0.0012737591582909352 -0.030675538766375351 -0.020596070930115618 0 -0.020596070930115618 -0.0039083742816545114 0 0 0 -0.0086459782620073554 -0.010508976341481846 0.047654362004500683 0 0.047654362004500683 0.0037561684637177351 0 0 0 -0.0016882019694408612 -0.053305512166172977 0.0049024383258184853 0 0.0049024383258184853 0.00048313829572917133 0 0 0 -0.013205593467610958 -0.028206234740224857 0.00043602489833902223 0 0.00043602489833902223 0.0079107802426904971 0 0 0 -0.0050738636243835879 -0.041966930305610717 -0.022992224758097424 0 -0.022992224758097424 0.0018428808400821062 0 0 0 -0.010031012366382264 -0.0053748070008110965 0.0092657660376351259 0 0.0092657660376351259 0.021744318331793452 0 0 0 0.0040923778327456445 -0.0079649601802216918 -0.013089670273679965 0 -0.013089670273679965 0.046287826907646101 0 0 0 0.0095807166818560607 -0.026437153981145725 0.0018669092330520845 0 0.0018669092330520845 0.00095762330129985996 0 0 0 -0.0063698826699614694 0.0014915937806923019 0.00017790100043901802 0 0.00017790100043901802 0.0010156523472453216 0 0 0 0.00062681153198473893 -0.005139624250035002 0.001913033163381872 0 0.001913033163381872 -0.00087057472702944949 0 0 0 -0.0015025497442664459 -0.00066327038020430606 -0.014362709300336007 0 -0.014362709300336007 0.015322801456327362 0 0 0 0.003664882769030875 -0.00087485451777546963 -0.0068972950466104077 0 -0.0068972950466104077 0.016541723467076164 0 0 0 0.003916717237325118 -0.0015097564741419767 0.0080441848885466349 0 0.0080441848885466349 0.039695359001558295 0 0 0 0.0095464006318541905 0.0010519325257227763 -0.00022466460818426626 0 -0.00022466460818426626 0.00052788555684113447 0 0 0 0.00039495452064097769 0.00157119619128121 0.015980530483211464 0 0.015980530483211464 0.03934092965654834 0 0 0 0.010228031461957166 -0.0040442418209096775 -0.0016459001290684006 0 -0.0016459001290684006 -0.00090655390229832378 0 0 0 -0.0012376989308018338 -0.023903548898311866 -0.0081185948480248238 0 -0.0081185948480248238 -0.018455671947294361 0 0 0 -0.010589805211401571 -0.025947188860859172 -0.0086064818729278576 0 -0.0086064818729278576 0.0082252030640745932 0 0 0 -0.0044304964491960752 -0.031700758954002817 -0.009975154664927377 0 -0.009975154664927377 0.0062403036228746434 0 0 0 -0.0063651138327820433 -0.014453564163388204 -0.0014862676413602283 0 -0.0014862676413602283 -0.020228859717321135 0 0 0 -0.0086706059701773079 -0.014780974490516546 0.00065735488681273324 0 0.00065735488681273324 -0.016939101736828999 0 0 0 -0.0079300190568363516 -0.01840264099417813 0.023580811285462425 0 0.023580811285462425 0.079148398519496399 0 0 0 0.015186439381329558 -0.036946595722941393 -0.015698170239456508 0 -0.015698170239456508 0.0080300004535805714 0 0 0 -0.0072291488173402002 -0.038813242681914294 -0.023436978122596749 0 -0.023436978122596749 0.0038162328396336431 0 0 0 -0.0087492524605701436 -0.044114383197412795 0.002934157921888884 0 0.002934157921888884 0.0029786666788861882 0 0 0 -0.010283929129631667 -0.088376282554624486 0.032661282372858702 0 0.032661282372858702 0.0029683603441723605 0 0 0 -0.021351980552613115 -0.071582036530438931 0.046253332696356675 0 0.046253332696356675 0.032340589297185085 0 0 0 -0.0098103618083134059 -0.012549088278499196 0.022317940224846677 0 0.022317940224846677 0.051420036604703706 0 0 0 0.009717737081551131 -0.020788183938601434 -0.0092755844255006485 0 -0.0092755844255006485 0.010701845373911834 0 0 0 -0.0025215846411724141 -0.025513542393514221 -0.010061662525114218 0 -0.010061662525114218 0.0092084686874548405 0 0 0 -0.0040762684265148175 0.01200410807950833 0.029760872536386318 0 0.029760872536386318 0.054037991295194432 0 0 0 0.016510524843675697 -0.049318002593549085 -0.020881069716533029 0 -0.020881069716533029 0.015152950883108862 0 0 0 -0.0085412629276099966 -0.058183116258345033 -0.014316928216729696 0 -0.014316928216729696 0.0012301315502228627 0 0 0 -0.014238246177030553 -0.0098946441820545739 0.019642895239354693 0 0.019642895239354693 0.038721455550636663 0 0 0 0.0072067028421455293 0.0010057405418832724 0.023820579561439847 0 0.023820579561439847 0.030514350228400995 0 0 0 0.0078800226925710634 -0.032489339652655658 -0.012598761999720848 0 -0.012598761999720848 0.016955736339598126 0 0 0 -0.0038834008282643828 -0.027117105351707783 -0.0029103403362824784 0 -0.0029103403362824784 0.0090105462776563852 0 0 0 -0.0045266397685128409 -0.026682675188822547 -0.0019305306812413391 0 -0.0019305306812413391 0.016328640658894986 0 0 0 -0.002588508632481893 -0.027008537284112712 -0.00080518944880555304 0 -0.00080518944880555304 0.027706045252656485 0 0 0 0.00017437699213594844 0.0052320998802963814 0.018287696612927284 0 0.018287696612927284 0.088282442447601195 0 0 0 0.023378635581974283 -0.02640744022172431 -0.0054829899680782779 0 -0.0054829899680782779 0.00021465598859760071 0 0 0 -0.0065481960582815524 -0.053329666095309626 0.0068747396436581905 0 0.0068747396436581905 0.00048229251166451159 0 0 0 -0.013211843395911279 -0.018072880609824257 0.0048455345956565418 0 0.0048455345956565418 -0.0076700477555680692 0 0 0 -0.0064357320913480832 0.033377779676323827 0.016158593186045289 0 0.016158593186045289 0.048943574426779657 0 0 0 0.02058033852577601 -0.019579904438246254 -0.0054393727424660032 0 -0.0054393727424660032 -0.017092286424419068 0 0 0 -0.0091680477156663165 -0.044452481609473828 -0.023027981809244119 0 -0.023027981809244119 -0.001514753084760595 0 0 0 -0.011491808673558597 -0.066005590953812004 -0.018880248336131875 0 -0.018880248336131875 0.0010018449734132684 0 0 0 -0.016250936495099663 -0.027036237543831998 -0.0090160141968335661 0 -0.0090160141968335661 0.033785060928129607 0 0 0 0.0016872058460744022 
</DataArray>
<DataArray type="Float64" Name="cross_section_updated" format="ascii">
0.0010072110070102622 0.0010179355949778506 0.0010247255786897667 0.0010313148171222386 0.001038340002504046 0.0010461639713268719 0.0010549032584351358 0.0010639840513254296 0.0010733024524952923 0.0010817234316795742 0.0020262766716417084 0.0020681711425922251 0.0020972822046464797 0.0021240625833921353 0.0021507620457970867 0.0021776651483809994 0.0022050486435638318 0.0022320191144616121 0.0022584860870688566 0.0022832938235053026 1 1 1 1 1 1 1 1 1 1 1 1 1 1 1 1 1 1 1 1 1 1 1 1 1 1 1 1 1 1 1 1 1 1 1 1 1 1 1 1 1 1 1 1 1 1 1 1 1 1 1 1 1 1 1 1 1 1 1 1 1 1 1 1 1 1 1 1 1 1 1 1 1 1 1 1 1 1 1 1 1 1 1 1 1 1 1 1 1 1 1 1 1 1 1 1 1 1 1 1 1 1 1 1 1 1 1 1 1 1 1 1 1 1 1 1 1 1 1 1 1 1 1 1 1 1 1 1 1 1 1 1 1 1 1 1 1 1 1 1 1 1 1 1 1 1 1 1 1 1 1 1 1 1 1 1 1 1 1 1 1 1 1 1 1 1 1 1 1 1 1 1 1 1 1 1 1 1 1 1 1 1 1 1 1 1 1 1 1 1 1 1 1 1 1 1 1 1 1 1 1 1 1 1 1 1 1 1 1 1 1 1 1 1 1 1 1 1 1 1 1 1 1 1 1 1 1 1 1 1 1 1 1 1 1 1 1 1 1 1 1 1 1 1 1 1 1 1 1 1 1 1 1 1 1 1 1 1 1 1 1 1 1 1 1 1 1 1 1 1 1 1 1 1 1 1 1 1 1 1 1 1 1 1 1 1 1 1 1 1 1 1 1 1 1 1 1 1 1 1 1 1 1 1 1 1 1 1 1 1 1 1 1 1 1 1 1 1 1 1 1 1 1 1 1 1 1 1 1 1 1 1 1 1 1 1 1 1 1 1 1 1 1 1 1 1 1 1 1 1 1 1 1 1 1 1 1 1 1 1 1 1 1 1 1 1 1 1 1 1 1 1 1 1 1 1 1 1 1 1 1 1 1 1 1 1 1 1 1 1 1 1 1 1 1 1 1 1 1 1 1 1 1 1 1 1 1 1 1 1 1 1 1 1 1 1 1 1 1 1 1 1 1 1 1 1 1 1 1 1 1 1 1 1 1 1 1 1 1 1 1 1 1 1 1 1 1 1 1 1 1 1 1 1 1 1 1 1 1 1 1 1 1 1 1 1 1 1 1 1 1 1 1 1 1 1 1 1 1 1 1 1 1 1 1 1 1 1 1 1 1 1 1 1 1 1 1 1 1 1 1 1 1 1 1 1 1 1 1 1 1 1 1 1 1 1 1 1 1 1 1 1 1 1 1 1 1 1 1 1 1 1 1 1 1 1 1 1 1 1 1 1 1 1 1 1 1 1 1 1 1 1 1 1 1 1 1 1 1 1 1 1 1 1 1 1 1 1 1 1 1 1 1 1 1 1 1 1 1 1 1 1 1 1 1 1 1 1 1 1 1 1 1 1 1 1 1 1 1 1 1 1 1 1 1 1 1 1 1 1 1 1 1 1 1 1 1 1 1 1 1 1 1 1 1 1 1 1 1 1 1 1 1 1 1 1 1 1 1 1 1 1 1 1 1 1 1 1 1 1 1 1 1 1 1 1 1 1 1 1 1 1 1 1 1 1 1 1 1 1 1 1 1 1 1 1 1 1 1 1 1 1 1 1 1 1 1 1 1 1 1 1 1 1 1 1 1 1 1 1 1 1 1 1 1 1 1 1 1 1 1 1 1 1 1 1 1 1 1 1 1 1 1 1 1 1 1 1 1 1 1 1 1 1 1 1 1 1 1 1 1 1 1 1 1 1 1 1 1 1 1 1 1 1 1 1 1 1 1 1 1 1 1 1 1 1 1 1 1 1 1 1 1 1 1 1 1 1 1 1 1 1 1 1 1 1 1 1 1 1 1 1 1 1 1 1 1 1 1 1 1 1 1 1 1 1 1 1 1 1 1 1 1 1 1 1 1 1 1 1 1 1 1 1 1 1 1 1 1 1 1 1 1 1 1 1 1 1 1 1 1 1 1 1 1 1 1 1 1 1 1 1 1 1 1 1 1 1 1 1 1 1 1 1 1 1 1 1 1 1 1 1 1 1 1 1 1 1 1 1 1 1 1 1 1 1 1 1 1 1 1 1 1 1 1 1 1 1 1 1 1 1 1 1 1 1 1 1 1 1 1 1 1 1 1 1 1 1 1 1 1 1 1 1 1 1 1 1 1 1 1 1 1 1 1 1 1 1 1 1 1 1 1 1 1 1 1 1 1 1 1 1 1 1 1 1 1 1 1 1 1 1 1 1 1 1 1 1 1 1 1 1 1 1 1 1 1 1 1 1 1 1 1 1 1 1 1 1 1 1 1 1 1 1 1 1 1 1 1 1 1 1 1 1 1 1 1 1 1 1 1 1 1 1 1 1 1 1 1 1 1 1 1 1 1 1 1 1 1 1 1 1 1 1 
</DataArray>
<DataArray type="Float64" Name="displacement_divergence" format="ascii">
0.007191274997698012 0.017912320039616094 0.024698294809137503 0.031289401644433321 0.038317111623363931 0.04614154820158866 0.054878619854176643 0.063957791569254518 0.073285745567455429 0.081666424964219525 0.013207557076614036 0.034079129335864058 0.048630306618576667 0.062013742038985589 0.075357492835722586 0.088802872001270572 0.10249045906941387 0.1159511701849217 0.12926246670001593 0.14134963379356022 -8.5905505039999945e-06 2.1273934257157135e-06 -1.233979691275816e-05 -1.1222725120777031e-05 -6.3497517381334937e-05 -4.5250309742726905e-05 -6.8729275755144276e-05 -4.7321418692626098e-05 -5.7785821787789636e-05 -0.00010012395554283155 -1.267084663237561e-05 -1.3187207762546534e-05 -2.4514460685437012e-05 -2.7320249743812059e-05 -2.8668744975588492e-05 -1.7386032150690272e-05 0.0001729490076832363 -7.6479256487934581e-06 -1.08284187689189e-06 -6.0306268470757332e-06 -1.5069270676284705e-06 -8.985112921804702e-06 -1.0492515150939343e-05 -2.2603094391262934e-05 0.00013863494723467609 -0.00011124550662964584 -6.1078266017412634e-05 -3.7651436441696621e-05 -2.2126076007227772e-05 -5.2289727158671357e-05 1.6390114267639293e-06 -1.4022662593395226e-05 -1.8168676860208554e-05 -1.2104951199983774e-05 -2.3659490077460477e-05 -3.9839523460767776e-05 1.8304633615506071e-05 -5.2839093903314812e-05 0.00016557771773593739 -2.2737969487626351e-06 8.2465045987465237e-06 1.8779354471550675e-05 2.6839621304875893e-05 -5.9452503030467743e-06 -2.2003974630255109e-05 -2.1713453789677778e-05 -3.1254077404423836e-06 -8.5579327255645829e-06 0.00017981865280489791 -6.3144292099454383e-06 1.4233560872500073e-05 -2.6692110855799402e-05 8.3650324949676834e-06 -1.4056636182445485e-05 -7.4843167900001954e-06 -5.9261314062984943e-05 -4.8562942468234355e-06 3.904937813639436e-05 2.7154436945122036e-05 -7.9555089553106501e-07 -1.9119380695823557e-05 5.3706807445990939e-05 -1.4892400328309747e-05 -1.5295029075812852e-05 -1.587991002882953e-05 -4.9711957679243334e-05 -6.9003118453547416e-05 -7.6514990688233363e-06 4.501363574314389e-06 -5.3668459345982118e-05 -4.1320847591019903e-05 -1.7719699629932761e-05 -4.5856074576535278e-05 -6.5639014621371482e-05 -1.8880683030002114e-05 -1.2914612718915148e-05 5.6949024452210804e-05 -4.7826770903633192e-06 -1.9764649161840787e-05 -1.9856255586784045e-05 -3.1916527231848346e-05 -6.9028019904302345e-05 -5.1034882076698385e-05 -2.3035485802077845e-05 -1.1911519016422588e-05 -7.8041145994555035e-06 -1.1956899439460898e-05 -1.4278642806039891e-05 -3.5038757280555957e-05 -2.0140327909127023e-05 -1.1748372660571247e-05 -1.3426362590274378e-05 -1.4933016346567896e-05 -1.0966190965139755e-05 -1.0667811707769695e-06 -1.7701194795726708e-05 1.7813942782168191e-05 5.8829763882479666e-05 -6.511254935230755e-07 -6.1679691776509588e-06 6.4448350316589909e-05 4.0148948032126038e-05 -1.7240125841935252e-05 -2.0123869974720346e-05 2.1581730466803482e-05 3.5595420843593725e-06 -5.2930822864646616e-06 -1.6340414896116049e-05 -1.8098276888155011e-05 1.3996775568424207e-05 -8.6087650387452544e-06 2.9611237773163272e-05 -5.1913549643873224e-05 -8.4985425117783492e-05 -3.8104319757329135e-06 7.5428247153837974e-05 -1.4441423299742934e-05 -1.2203092399271521e-05 4.2709765347876591e-07 -1.4424792672178624e-06 4.8699985800556775e-06 -2.4620537847489704e-06 1.0887605440997148e-05 -1.829750092819792e-05 -1.7232451138438147e-05 -1.7992804242347113e-05 1.7272957940680372e-06 -8.1202102421824005e-05 -2.0972370180811042e-05 -1.6172264006664681e-05 -2.4635775071107024e-05 -6.2301574197820217e-05 -4.3576624476983312e-05 -4.4139323608038944e-05 -7.2208700251549926e-05 -6.819255986862668e-05 -1.9269219446945039e-05 -4.7583228884638966e-05 2.3454075174307977e-05 3.8486439588479811e-06 3.7325701507920986e-06 -2.221301071065598e-05 -7.8144309544090707e-06 2.2121604691305755e-07 -1.6621851189869215e-05 -2.100767164850344e-05 -2.8132105343729577e-05 -2.5554000163383589e-05 -4.9622939652087944e-06 -3.4734999345923163e-05 -3.0273401200793981e-05 -1.8432145511623495e-05 -1.5393315423898518e-05 -1.8081151927078626e-05 -1.8549402468976591e-05 -2.376000165926935e-05 -2.0232861035025199e-06 -1.4154035111321276e-05 -2.328908291435612e-05 1.468340780199205e-05 -1.9086831958044035e-05 -1.5632763463785114e-05 -6.8996013452966403e-05 -5.1014121381792763e-05 6.6949509571387458e-05 -1.387571120992744e-05 3.7586631546906665e-06 -2.8159600956027982e-05 -4.84469213370596e-05 -7.7750646837175449e-05 -2.4286168273737437e-05 -4.3620098940631268e-05 -5.6227665307322e-05 -4.5402118602976422e-05 -2.8241782372577568e-05 -2.81771705730245e-05 -3.4042522494221849e-05 -2.0069621448484849e-05 -4.3214109769502268e-07 -1.7994296839408865e-05 -1.7752041777276658e-05 -2.1029422468115529e-05 -3.5020008681073113e-05 -3.0050289635287263e-05 -1.8820512974367776e-05 -1.7805792803217684e-05 -2.0738184102880039e-05 1.9783125621651966e-05 5.1056056045953936e-05 -3.9902716522664713e-06 -1.3890749407462556e-05 -2.0381626882161991e-05 -2.8798168044370321e-05 7.2772214914809501e-06 -2.1195575484700559e-05 -2.0842778783048495e-05 -1.7230942530962914e-05 -4.9663186332062053e-05 -7.5988793392040493e-05 -1.4518860208215381e-05 -3.3829915164738788e-05 -4.0560887045869034e-05 -9.3001567848258432e-05 -5.327392521040501e-05 6.2739209311574336e-05 0.00018125169385952111 -5.5098636432740879e-06 -1.5757089688705063e-05 1.2262201004857302e-05 -2.1104880987743132e-05 -1.7680901312706165e-05 -2.8935029490825695e-05 -1.5970786443719742e-05 -8.2214484612686862e-05 -2.0615789101210025e-05 -8.0504966218817534e-06 -6.4037471420405486e-06 -2.2434775960208898e-05 -7.4611816584124491e-06 -1.2629805749495964e-06 -4.197817234388814e-05 -1.9375029957083225e-05 -6.5188411818954236e-05 -1.6198029531792196e-05 -1.8080039700298106e-05 -1.9610508938000884e-05 -1.5351054103049117e-05 -1.9668178151101217e-05 5.8554181128948044e-05 -1.3842629776847641e-05 -1.8548989778216069e-05 -1.1856584173577839e-05 3.8842554379562688e-05 -5.0361153804815917e-05 -1.519249047090939e-05 -7.6693219562488246e-05 -4.9063297739516257e-05 -4.7893768012128961e-05 -1.5703464895169766e-05 -6.4803725533785065e-06 1.9615182158725273e-06 1.3106122959621007e-06 -1.3544636786564189e-05 -2.1045954569529242e-05 -1.2214702595800091e-05 -1.5801425311824096e-05 1.172517624086254e-06 -4.2290686631026725e-06 -1.2661406253467247e-05 -1.0262622432685286e-05 -5.4929173464678387e-06 -4.3369095355103829e-05 -3.2217400484907952e-05 -3.7854814612388646e-05 -5.8228819383782625e-05 -4.5582102584440141e-05 -2.1896994966347791e-05 6.2043332104673747e-05 -5.212856036167913e-05 -4.0049934513516019e-05 -8.7714375423860281e-06 -2.8867000608656514e-05 -3.440882004354451e-05 -6.1885884871126236e-05 -6.3823643948872566e-05 2.5102019932058545e-06 -6.8119080845990658e-06 -9.1924205005035235e-06 -1.4646352928598234e-05 -2.3972501226631648e-05 3.2132295357038235e-05 5.8843286589587286e-05 -1.7442053634286557e-05 -3.7554039586978254e-05 -1.9389373389782608e-05 -5.8739393261122974e-05 -9.0994416112111398e-06 -1.429923801907955e-05 -1.38416404559732e-05 -2.6285298604614169e-05 -2.820422306622401e-05 -2.9514952867693809e-05 -3.0109971596380437e-05 -3.9548376732106972e-05 -5.8368363003995075e-05 -5.1918197399139704e-05 -4.0326390542204296e-05 -3.2082332207741068e-05 -4.1300583658419143e-05 -2.3701837088110975e-05 2.0231892224248886e-05 -1.1065861701567082e-05 -1.0279371958150235e-05 -4.0355327891009214e-06 -3.2352973106494945e-05 -4.0178529449507498e-05 -1.0588755389321316e-05 2.3092523825124934e-06 -4.6470262832404557e-05 1.823531959209456e-05 -2.1074572732759055e-05 1.0071088435979926e-06 -6.512049062512771e-05 -4.4143593279106067e-05 9.5247648489010502e-07 -1.4703206758159943e-05 -1.9087770376534526e-05 -6.5484780597309622e-05 -4.4945323676811398e-05 1.1003852566767651e-05 -1.4797014175764282e-05 -1.6829846135685278e-05 -3.6159695713760375e-05 -2.8826102694638568e-05 -3.0970077848622402e-06 -1.4378847263152853e-06 -3.0344588666428136e-05 -2.776947592240878e-05 -2.7588070236485675e-05 -2.6899676043168469e-05 -1.7907186083649361e-05 8.6303751720637008e-06 -4.0373626084446698e-06 -9.3285978647510495e-06 -2.1640254916902761e-05 -5.7208995609234377e-06 -2.4305727348282513e-06 6.2633565709464931e-06 -2.8904125665934859e-05 -1.6569608125912606e-05 -5.2981339800705755e-05 -4.0685115334623451e-05 -4.5816288594686515e-06 3.3976536982290896e-05 6.0332436878174768e-05 -3.0028559255482816e-06 8.7951779013111409e-07 -2.0699416016647996e-05 -2.8117925916481645e-05 -2.0750675470965825e-05 -1.7311951648271901e-05 -1.216507661866141e-06 -4.2458770998736852e-06 6.6025528499858181e-06 -1.1447063879097691e-05 -1.5934179373153158e-05 -1.3519274456505097e-05 -9.6028134900453936e-06 -6.150796645397992e-06 -1.2062858042932029e-05 -4.5132582773331743e-05 -3.6392449329403579e-05 1.2336965076962733e-05 -6.4945901819705944e-05 -4.7255231203257983e-05 -2.2723891983906976e-05 1.95793160465555e-05 1.5236941838794619e-05 -1.8007651985593449e-06 -1.9674835204878689e-05 -1.0157092972002958e-05 -1.9195861102615924e-05 -4.2046112281232716e-05 -3.0632588648165423e-05 1.7537188068550511e-05 5.4830008665531144e-06 1.5866425109789181e-05 -4.3039202215716481e-06 -4.4391992009818842e-06 3.0268535609002424e-05 1.7908204255232918e-05 9.8755505991785647e-06 -1.3074590777539807e-05 5.9297610927684159e-06 -1.3845729383522405e-05 -2.5800436424910456e-05 5.7037151668451706e-06 -2.030547718977795e-05 -4.9080539551586851e-05 -3.0732851525261229e-05 -5.5225910167193807e-06 1.8198075603239209e-05 -8.3769866881056119e-05 -1.5742005954837893e-05 -9.0358911988925396e-06 -1.8186423106772456e-05 -2.5860790993204258e-05 -2.290184346310683e-05 -1.3937756649557748e-05 -9.5909097339236416e-06 -1.4685638955145073e-05 -3.8874950957463539e-06 -4.5746112043235413e-05 4.8311038740295035e-05 -1.5428673156572505e-05 -1.1515846769287384e-05 -9.9368214634151545e-06 -1.3029183567063798e-05 2.0323910619674326e-06 -2.5975504906825884e-06 -6.735258013510919e-06 -1.0956541931019511e-05 -3.8251993244193906e-05 -1.3469236033707922e-05 -4.0859703156578993e-06 -4.3037273108863624e-05 5.4483608772852604e-05 -1.3654843422925347e-05 -1.2412155759075616e-05 -1.1510707301563747e-05 -1.4064561958784448e-05 1.5171248101977325e-05 -1.8955808299027073e-05 -2.2526344909856949e-05 -1.0714231942436631e-05 -3.88253018877581e-05 -2.99519216847955e-05 -1.1853578279635242e-05 -4.3399639156375134e-05 -6.2111324044367838e-05 2.8461972291001641e-06 1.0405403713062227e-05 2.5884757681897473e-06 -2.4981541023329744e-05 6.2345913346496524e-05 -1.8208217829938419e-05 -2.7432751775683512e-06 3.1900420816046793e-05 -1.2120742352654421e-05 -1.3295589425008775e-05 -1.0770897863033929e-05 -1.6840825428632574e-05 -1.0309041222340658e-06 1.3599529278812174e-05 -9.2092332340022471e-06 -6.2026818432801571e-05 -0.00011066533944080302 3.638228962817144e-05 -3.1058532623996482e-05 3.1429110947636793e-05 4.1283361500133245e-05 7.2872823917240616e-05 6.3203521243716115e-05 -1.5899560745012345e-05 -1.1462971931684284e-05 4.3530614392593562e-05 1.6787228957223827e-05 -8.2437683400834197e-06 6.6144049882255196e-06 -7.4234037607517206e-06 -5.8847692160973394e-06 -2.1556680968553947e-06 -1.2397131794368669e-05 8.8926672941611528e-06 -4.0746861016371894e-06 1.3643312388992601e-05 -5.5920386618883711e-06 6.5250500805042605e-07 6.9072548387359494e-06 -1.7422775655003643e-05 -1.584438146102796e-05 -1.6213945408315479e-05 -2.8720684176474246e-06 -3.8944839544148677e-05 2.7254866017185976e-05 2.9291559650770606e-06 6.8106124226577635e-06 -2.1971735061309696e-05 -2.5709411328160396e-05 -0.00012437926934108295 -6.634085465249544e-05 -1.8741004636577766e-05 -2.3274919596316103e-05 3.8661696307721498e-06 3.481420684994018e-06 -2.1598353686213305e-06 -6.1958052195515141e-05 -4.3934546382320793e-05 3.7356419584235953e-05 -4.9690562961608354e-05 -3.809225813468059e-05 -2.1949261047088625e-05 5.0879286262800558e-05 -1.7021093155728139e-06 -9.9183713928793771e-06 -3.71869051635775e-05 -3.4480172439818869e-05 -5.5810980198675064e-05 -9.1423787737920557e-05 -2.0769750196853495e-05 2.0274539296566852e-05 6.2882798973276779e-08 4.9268660390254495e-06 1.4899858121944482e-06 1.9247574070239168e-05 1.9149743158614023e-05 -2.5153086324781289e-05 -1.4611391312709266e-05 5.9103922317007619e-07 4.3258829347831294e-05 -5.2293708828813105e-05 -8.2215797474608361e-05 -1.7492273873977514e-05 3.1985113587666399e-05 -6.4337312707347495e-06 -5.1375858177463894e-05 -3.879797714424114e-05 -1.8390815430995362e-05 2.5314741376330249e-06 -3.2033628268301204e-06 -1.8443493929206488e-05 -3.2311740006021232e-05 1.5813665884140842e-05 1.6035320575244049e-05 9.0788612178578079e-07 -6.6845895041696738e-06 -3.9791842013385274e-06 2.1532156243815611e-06 5.3662589735611801e-05 4.6629321754005672e-07 2.6555585398269944e-05 6.4005490441271587e-07 -2.9457011667097744e-06 -8.600504052749835e-06 -4.1958754882952663e-06 -7.135665960456907e-05 -8.2405721672167956e-05 -1.4906566767592333e-05 -1.8456086727531638e-05 2.0339798534370744e-05 -3.726183443021175e-05 -3.3136271501483753e-05 -3.936310997977081e-05 -4.9390777364803767e-05 -3.0941782113895607e-05 -2.3628189928394773e-05 -2.3848451031439064e-05 -2.3732385096496042e-05 -2.2442658316244213e-05 -2.543776960836092e-05 -1.2658926573652467e-05 -1.665241612978474e-05 -2.9124323563138011e-05 -2.9341284846568264e-05 -1.0496313236034572e-05 -3.3091319716846116e-05 -3.8692723189782929e-05 6.1461350184034453e-06 -1.1185743805987609e-05 -4.785629470359084e-05 -4.0061690359389441e-05 2.8887674380021589e-05 -2.4579756546591267e-05 -2.2302175161423673e-05 1.3011814880379484e-05 -3.2412605338254045e-06 -6.058808685637147e-06 -7.1614727908209547e-05 -5.0392692243719698e-05 1.2780103916857239e-05 -4.9767004132135199e-06 -1.3899570434705736e-05 -3.8669656577033701e-05 -4.7400959554921157e-05 -8.9421251153557759e-06 -1.3471684156015891e-05 -1.5738000121026877e-05 -1.7031650338665678e-06 -1.7406927879136077e-05 6.8687878756792757e-05 -2.1522568147610137e-05 -3.0709927429869305e-05 1.9828419932573687e-05 1.9362078833897183e-05 -4.0091966620443823e-05 -5.9497237386080793e-06 -5.2402438012267384e-05 -8.8347356577742634e-05 -5.221255240127468e-05 -8.9705239264188793e-05 -4.6021899183855736e-05 -6.2419929722252391e-05 -2.5096081085955894e-06 4.8247369001297766e-06 2.0258801377396837e-05 5.1723864601681691e-05 7.9772751413034531e-06 4.120991394853139e-05 1.0897909147633425e-05 -1.5340143155523354e-05 7.8973697390129617e-06 -3.0741271745385779e-06 5.7452603456955262e-06 -6.7318105828101729e-05 4.6621369116939271e-07 7.4508477552682497e-05 6.5859218808586952e-05 2.2757445963897632e-05 -9.8061407476273462e-05 -5.6139764084756823e-05 1.376056200610431e-06 -4.3466485320800292e-05 -2.8044776424665518e-05 -4.9553511438026835e-06 6.2491904338358362e-07 1.7697101465183264e-05 -1.2931429437911326e-05 -2.868095408949334e-05 -3.1567182404830163e-05 -1.1294943205202571e-05 -1.1030304443225602e-05 -1.5385814917470855e-05 -1.4625680804364371e-05 -2.8434902807018684e-05 -2.1553846502824063e-05 -3.4667296930014944e-05 -4.2612167020022464e-05 -4.5220548128485909e-05 -7.949157367124972e-05 -3.815343467545409e-05 -7.8487903712506456e-06 -1.6256725435874215e-05 -6.0754565354145492e-05 -8.2639594180038131e-05 -1.5338169487279078e-05 1.6528893351192692e-05 -5.7658053606304978e-05 -0.00010481831096343069 -2.7778751459678436e-05 -5.2397864663396052e-05 -3.8084921092180281e-05 8.1392079534080069e-05 -7.4904328181836619e-05 -4.7941002344470857e-05 -2.2791911190208551e-05 -2.1974990875639044e-05 4.1734171770538379e-06 -1.2276551483210717e-05 -3.297804984203677e-06 7.2652875196415646e-05 -3.7348900757885058e-05 -1.4451740928726419e-05 6.1384188912676132e-05 -3.8277981991116995e-05 -0.00012509879228886632 -6.7404339374244548e-05 6.0881966878688728e-06 -4.9990625562850761e-05 -5.8212732344447073e-05 3.0398456757802699e-05 -2.5677482910362731e-05 -1.4852002063232898e-05 4.9944447960597119e-05 -9.1749199885361211e-06 -8.3044322648435963e-06 7.0233191123792252e-06 -1.4184586017361385e-05 -2.433125570129157e-05 2.2559098973896474e-05 -2.3690507152428907e-05 2.8279110517542253e-05 -4.5898834030303479e-05 -2.2749459214938233e-05 -3.8472109344541844e-05 -3.9458549570953226e-05 -5.0043366647896026e-05 -4.3164589076330001e-05 -4.3318418516373773e-05 -3.2963793613585292e-05 -3.7034466531793196e-05 -3.124833541897557e-05 -3.0936936497271492e-05 -7.4300379083201478e-06 1.2519074854850718e-05 -1.0049865621766999e-05 -5.7241247235276498e-06 -9.8891020354736436e-06 6.3382356495662049e-06 -4.8964121814467449e-06 -6.8684607684218492e-05 -0.00012922888216735208 2.3426839159051765e-06 1.1881713950306525e-05 -3.0837727084572647e-05 -1.5871992678218134e-05 -2.4368339103018382e-05 -1.9946345497998577e-05 3.7051894452664972e-05 -4.778762169009839e-05 -4.3073302030306505e-05 -5.9067540351321869e-05 -7.10912853926893e-05 -5.9723675612832956e-05 4.0468100107375182e-05 1.7823866850076022e-05 -1.8745906881320129e-05 -2.7173715579140995e-05 -2.527747288333581e-06 -3.9646655417401361e-05 1.5307235819163019e-05 -1.8427554621484296e-05 -2.0622383716206582e-05 5.2290105772458381e-05 -0.00010760647972854888 -1.3546992967006625e-05 -3.6520851641988026e-05 -4.3185219116829791e-05 -2.7041437002148607e-06 -5.1171720115841389e-05 -8.5402110737730854e-05 2.7360695310183272e-05 -2.4517481285139722e-05 1.7127782186292272e-05 1.7234841763171188e-07 -6.0533475812704109e-06 -9.5591435705309549e-06 -1.6144897320265265e-05 -2.0773008245621189e-05 4.2893973535211008e-05 3.7237667844052422e-05 -1.9996393310585262e-05 -1.7754687020171038e-05 4.7031464258319618e-06 -8.6643789141147357e-07 -1.7453825211705999e-06 1.9226727312124815e-05 -1.3889277737350869e-05 2.6697706045710997e-05 3.9946640954254908e-06 -4.1504763082507706e-05 -4.7163957129437253e-05 -7.9974448464933392e-05 1.3243342832099455e-05 1.8849804457306306e-05 -1.3108487232275346e-05 -1.6591535455697499e-05 -8.0425726978837497e-05 -4.9476212649982935e-05 -4.4857623381317819e-05 3.1900187887328162e-05 -1.6764149479459685e-05 -1.7262645062069666e-05 -9.0597001699433075e-06 -2.7388134885576168e-05 -2.927477957601746e-05 -1.072612971138812e-06 9.840091428113155e-06 -4.1788535881893073e-05 -4.4340221133974656e-05 -7.3113235847473796e-05 -2.0163520789002651e-05 -2.6716183499916521e-05 -3.8603452595110732e-05 -3.3725096439893018e-05 -9.2769911762694349e-06 -4.8615689494046907e-05 -5.7129893205106546e-05 -1.8247948736732381e-05 -2.9078389319641719e-05 -1.5706060667818203e-05 5.0749050882240368e-05 6.4853606524153273e-05 -6.1001985063345666e-05 5.6312435423638862e-05 4.4374682951407686e-05 -2.8083105788119389e-05 -2.0152478961211522e-05 -6.1641012530774895e-05 2.2649801753905907e-06 4.9000133487422144e-05 -1.8495939569283939e-05 -5.346184233416235e-05 -9.1884760848043724e-05 -3.0166574778166776e-05 3.2988221653130383e-06 -9.9067301666337084e-06 1.465095322473259e-05 -5.4267661402647874e-05 -4.4596481466414295e-05 -6.1844247311355693e-05 9.5654680212769062e-06 -3.3854817744125342e-05 2.9370726638973992e-05 -1.2684640589908139e-05 -1.0967699157446529e-05 -5.3708391639748106e-05 -9.2652578278433012e-05 -3.8638609602668493e-05 -4.2281849275530351e-06 1.3980696684583421e-05 -2.4604690205114996e-05 -1.8438351066384149e-05 -3.0400336115779801e-05 -3.0382281975944291e-05 -1.7345259611107342e-05 -1.7217944144599807e-05 -5.5436651170816123e-05 -0.00010046531505235475 -2.9192314078627026e-05 4.9622449355718468e-05 3.3876050090554059e-05 -2.2279187514148355e-05 5.9661894775747334e-05 -1.4534565329680062e-06 -1.7529728966254345e-05 4.1279893580509035e-05 7.1548719664657836e-05 -5.0882117998931079e-05 -3.1908517925006925e-05 -1.0430246207034842e-05 -4.7814626616489355e-05 6.9220816235669811e-06 -1.3731913321774371e-05 -2.1006523885877118e-05 4.9833115179788445e-05 -2.6728632497761433e-05 -1.3465701259523887e-05 -9.0470902679153772e-06 8.9427400364021229e-06 3.8523169826180242e-05 6.8620129000136396e-05 2.3489776898243083e-05 1.2168219780979802e-05 -8.3129924500600108e-06 2.0992555911171491e-05 -2.7269592678845142e-05 -3.8077544241607762e-05 -3.1514738413173065e-05 -3.6199383556175858e-05 -3.6477691372238143e-06 6.7440731295224455e-06 -6.4938390356711582e-06 -1.9369383848246574e-05 -1.7065500489244836e-05 -1.1174403454432567e-05 -1.5811039334348883e-05 -1.2151533025120311e-05 -1.304947996841823e-05 -1.372472188170958e-05 8.7423693193435981e-05 -1.5462472467125985e-05 -2.6789304132342076e-05 5.4390676016867132e-07 7.0311354311807309e-05 6.6404652507080875e-05 3.4343054566468578e-05 8.5574507406940836e-07 4.5381725565970851e-07 3.9065940095209598e-05 7.8017612810139109e-07 -1.6433620535132275e-05 -1.9276895715658189e-05 -2.8509625844737709e-05 -2.2835251664615492e-05 -2.1080407580549533e-05 -2.0143943363806153e-05 -1.142707984067297e-05 2.7721516861193467e-05 5.2448023761516595e-05 1.9248510665002773e-06 -2.5568785453856507e-05 7.2294831975454332e-06 3.1795392422293272e-05 -1.1043849562285615e-05 -8.4515609586043366e-06 -7.4542502938909194e-06 -2.1970640704009874e-05 -5.9909108987701376e-06 1.5449697266987591e-06 -2.2994808372977783e-05 -3.4810743678666717e-06 1.7514816887300149e-05 -1.6528393981104724e-05 3.5772831079690739e-05 1.2418278556417341e-05 -1.2432324552868242e-05 -3.6658449499813334e-05 -1.2595541919619433e-07 4.5659408222609393e-06 0.00010486797352735701 9.0449935306574202e-05 4.960363637282212e-05 1.3644278895440779e-05 -3.0761264058509243e-05 -2.4271047204902976e-05 -5.2067064214633436e-05 -4.0015739808511966e-05 -9.8419801688297501e-06 -5.0702478983890958e-05 -5.3621792128013702e-05 -6.9309440757510103e-05 -7.4042588635402743e-05 -1.4618594128273287e-05 -1.306404461475543e-05 2.7332856296617084e-05 2.5118072361024425e-05 3.2579516511770909e-05 4.8017393462827882e-07 3.0604933661929521e-07 6.7250754630710938e-06 1.8291614487676202e-05 -3.5547224378061231e-07 -9.1985912194835693e-06 -8.8081592321831177e-06 -6.311738733353051e-05 -8.7127464760096288e-05 -8.4241911239073478e-05 -6.1562159179215278e-05 -8.7180353226101325e-06 -2.0764524277310265e-05 -1.401872097095484e-05 -1.7218054284318465e-05 -1.7014946230173144e-05 -1.4254703118612366e-05 -1.3924335456968026e-05 4.1289234013957535e-05 0.00019212352082313613 -2.4649084588845396e-05 9.5398732256220514e-06 -3.8041644769625329e-06 -8.5619501896585105e-06 1.5581979407424274e-05 -1.6695310667955068e-05 3.6784500182308785e-05 -2.2090334612436555e-07 -2.2460413919170828e-05 6.077485930418465e-07 4.2528424102656216e-06 -1.8838035457530112e-05 1.8761265456093066e-05 -1.7676986696574074e-05 -3.1196063525865358e-05 -2.7308765477199744e-05 -2.4856610679104301e-05 -6.1396037583439351e-06 -4.5205181762743947e-06 -1.9536410253087955e-05 -1.3869671443646778e-05 -1.5834043353047997e-05 -2.2510896113865945e-05 -7.1233010740601524e-06 -2.7485572094474413e-06 -1.9317130099137983e-05 5.8470751373090375e-05 1.0338128274384531e-05 -3.7212043760741567e-06 2.7706909914014966e-06 -4.5650054671312994e-06 -2.865270280399089e-05 -7.8738501226218588e-06 -2.649467341384092e-06 2.855797602023236e-06 2.4126894183473108e-06 -3.2193856789979047e-07 -4.6430176679074231e-08 -4.1757125067080729e-06 -2.7990917432555579e-05 1.3770370824518551e-05 4.3059214869770978e-05 7.7623940238569699e-05 -1.2855012410445021e-05 -4.0315911947077284e-05 -4.5199966469416323e-05 -2.1480106787588054e-05 -9.5398188885238946e-06 -1.7084227288095725e-05 -6.3136629492922903e-06 -3.0023755358122954e-05 -5.951044351118831e-06 -8.6571139897532057e-06 -4.7165021600680025e-05 -6.6895588705798454e-05 -5.5406252506646307e-05 -4.1227292442288366e-05 -8.7722102290389434e-06 -4.1483092957003351e-05 3.8563806145290418e-06 6.372292181801905e-07 -2.2138966768023028e-05 -2.5362644367002917e-05 -1.0724672484545102e-05 -9.1737718863976151e-06 -3.8230956609380324e-05 -3.8384333058481487e-05 -2.5211141298197995e-05 -3.1843978957274497e-06 -2.1614945655018173e-05 -4.220504923602153e-06 -3.3013983669027292e-05 -1.2684659060958993e-05 -2.5077530915955382e-05 1.0230944581864104e-05 2.3951791704640243e-05 -1.5924706674903689e-05 1.5670288299610494e-06 -3.756374360666323e-06 9.1622069225772221e-06 9.7917930933131246e-06 2.3866001579635719e-05 9.8738630160272178e-07 2.5570078654893295e-05 -3.0942473270055906e-06 -2.6474513028503757e-05 -1.1076241122990335e-05 -1.5912784581955156e-05 -2.1676514925443228e-05 -1.9825047642090909e-05 3.7966098453323899e-05 -1.807287204335048e-05 -2.1873131151425385e-05 -2.5709822824079163e-05 -5.3379951381532682e-05 -2.4525904520783645e-05 2.4294342703877817e-05 -6.3039616029310006e-06 -1.0190671066287156e-05 4.1276312109189272e-05 -2.1353157319025317e-05 -3.5595615442576215e-05 1.8016757105363793e-05 1.9700056731427659e-05 -9.7085020706609072e-06 -1.1316599421282102e-05 -6.4712715812047358e-06 4.3594248033983668e-07 5.8446588954935794e-05 -1.6370490145703465e-05 -3.302960848977825e-05 -1.6089330228370204e-05 5.1450846314439729e-05 -2.2920119289165843e-05 -2.8729521683896483e-05 -4.062734123774916e-05 4.218014615186129e-06 
</DataArray>
</CellData>
</Piece>
</UnstructuredGrid>
</VTKFile>
