<?xml version="1.0"?>
<VTKFile type="UnstructuredGrid" version="0.1" byte_order="LittleEndian">
<UnstructuredGrid>
<Piece NumberOfPoints="3142" NumberOfCells="1054">
<Points>
<DataArray type="Float64" NumberOfComponents="3" format="ascii">
0.5 0.29999999999999999 0 0.54999999999999993 0.29999999999999999 0 0.54999999999999993 0.29999999999999999 0 0.59999999999999976 0.29999999999999999 0 0.59999999999999976 0.29999999999999999 0 0.6499999999999998 0.29999999999999999 0 0.6499999999999998 0.29999999999999999 0 0.69999999999999984 0.29999999999999999 0 0.69999999999999984 0.29999999999999999 0 0.74999999999999989 0.29999999999999999 0 0.74999999999999989 0.29999999999999999 0 0.79999999999999982 0.29999999999999999 0 0.79999999999999982 0.29999999999999999 0 0.84999999999999987 0.29999999999999999 0 0.84999999999999987 0.29999999999999999 0 0.89999999999999991 0.29999999999999999 0 0.89999999999999991 0.29999999999999999 0 0.94999999999999996 0.29999999999999999 0 0.94999999999999996 0.29999999999999999 0 1 0.29999999999999999 0 0.5 0.69999999999999996 0 0.54999999999999993 0.69999999999999996 0 0.54999999999999993 0.69999999999999996 0 0.59999999999999976 0.69999999999999996 0 0.59999999999999976 0.69999999999999996 0 0.6499999999999998 0.69999999999999996 0 0.6499999999999998 0.69999999999999996 0 0.69999999999999984 0.69999999999999996 0 0.69999999999999984 0.69999999999999996 0 0.74999999999999989 0.69999999999999996 0 0.74999999999999989 0.69999999999999996 0 0.79999999999999982 0.69999999999999996 0 0.79999999999999982 0.69999999999999996 0 0.84999999999999987 0.69999999999999996 0 0.84999999999999987 0.69999999999999996 0 0.89999999999999991 0.69999999999999996 0 0.89999999999999991 0.69999999999999996 0 0.94999999999999996 0.69999999999999996 0 0.94999999999999996 0.69999999999999996 0 1 0.69999999999999996 0 0.40076539126862748 0.34589349467022118 0 0.33277555741076909 0.36432196682010132 0 0.36575549820117997 0.31677992835137742 0 0.38083244760691543 0.38531983672244652 0 0.33277555741076909 0.36432196682010132 0 0.40076539126862748 0.34589349467022118 0 0.56836770495988642 0.3523062350852913 0 0.52289427570932567 0.3932284363388488 0 0.52752007115234678 0.33170632466418198 0 0.52752007115234678 0.33170632466418198 0 0.52289427570932567 0.3932284363388488 0 0.49077833859261139 0.35229981449445641 0 0.10000000000041601 1 0 0.053064897599294662 0.95186845269532028 0 0.10266856499240549 0.95548163909968886 0 0.099999999999814668 0 0 0.10266856499169109 0.044518360900210059 0 0.053064897599215843 0.048131547304697528 0 0.050000000000207989 1 0 0.053064897599294662 0.95186845269532028 0 0.10000000000041601 1 0 0.049999999999899652 0 0 0.099999999999814668 0 0 0.053064897599215843 0.048131547304697528 0 0.24999999999941211 0 0 0.29999999999926641 0 0 0.27499999999933927 0.060310814194988557 0 0.30000000000124832 1 0 0.25000000000104028 1 0 0.27609987656793722 0.94991445621608572 0 0.15720202157091859 0.60665697304410315 0 0.19914261668318661 0.62286739485272158 0 0.16500388252850301 0.66612077714085194 0 0.2236846579037573 0.67380363126050236 0 0.16500388252850301 0.66612077714085194 0 0.19914261668318661 0.62286739485272158 0 0.1247745017231483 0.27198077544791172 0 0.168349569971391 0.28054490850913671 0 0.14223753364722069 0.3341983344262433 0 0 0.75000000000034661 0 0 0.7000000000006934 0 0.049706944316475897 0.72477277076253799 0 0 0.30000000000124832 0 0 0.25000000000104028 0 0.049706944316556423 0.27522722923869108 0 0.59999999999999976 0.29999999999999999 0 0.61959173890754571 0.33832250091341232 0 0.56836770495988642 0.3523062350852913 0 0.5 0.69999999999999996 0 0.43323420005758778 0.6913544522562407 0 0.47913475093885149 0.66010775372412711 0 1 0.14999999999961891 0 0.95391631417672862 0.19584263333809451 0 0.93677536231883773 0.14999999999999089 0 1 0.84999999999982645 0 0.95391631417670719 0.89584263333814784 0 0.93677536231884972 0.85000000000000286 0 1 0.84999999999982645 0 0.93677536231884972 0.85000000000000286 0 0.95386563387742829 0.80414874155775029 0 1 0.14999999999961891 0 0.93677536231883773 0.14999999999999089 0 0.95386563387744361 0.1041487415577465 0 0.90416666666660628 0.9041666666666166 0 0.88088768115933802 0.84674609810493673 0 0.93677536231884972 0.85000000000000286 0 0.90416666666668166 0.20416666666667119 0 0.88088768115941807 0.14674609810479519 0 0.93677536231883773 0.14999999999999089 0 0.1247745017231483 0.27198077544791172 0 0.14223753364722069 0.3341983344262433 0 0.093851963071650835 0.30582068233324772 0 0.5 0.69999999999999996 0 0.45582236402875981 0.73896743678908217 0 0.43323420005758778 0.6913544522562407 0 0.55000000000173355 1 0 0.50000000000205869 1 0 0.52122150208832174 0.94089974453840242 0 0.49999999999869432 0 0 0.5499999999988151 0 0 0.52375890611712683 0.059318771819432882 0 0.54999999999999993 0.29999999999999999 0 0.59999999999999976 0.29999999999999999 0 0.56836770495988642 0.3523062350852913 0 0.50202631463681879 0.87892870825713787 0 0.44003836461056539 0.88093474584252718 0 0.45677673713123867 0.84253684404072415 0 0.33403534827021109 0.84402799729020661 0 0.35864759629805099 0.87963482415279515 0 0.30864387279288652 0.89906554525974958 0 0.53245488764484505 0.55078124999999989 0 0.47793794143994173 0.52940715638744962 0 0.53330375813596242 0.50827942741749099 0 0.82709327591102189 0.14937141670914489 0 0.81283102246527783 0.1881007222486438 0 0.77144070960558853 0.14311854477243749 0 0.82709327591091286 0.84937141670920724 0 0.81159157511211755 0.88795995483179491 0 0.76901770135486491 0.84293557325473656 0 0.77144070960558853 0.14311854477243749 0 0.81283102246527783 0.1881007222486438 0 0.76587607630038135 0.18880039518954719 0 0.76901770135486491 0.84293557325473656 0 0.81159157511211755 0.88795995483179491 0 0.76891166905518427 0.88835469571185499 0 0.33403534827021109 0.84402799729020661 0 0.30864387279288652 0.89906554525974958 0 0.29209212897034281 0.84715728365233667 0 0.57412547362576272 0.58273804879550706 0 0.5166924242153631 0.59825134841919447 0 0.53245488764484505 0.55078124999999989 0 0.50202631463681879 0.87892870825713787 0 0.47401147028110507 0.91529957330468115 0 0.44003836461056539 0.88093474584252718 0 0.5 0.69999999999999996 0 0.54999999999999993 0.69999999999999996 0 0.55363780716230748 0.74348740161571747 0 1 0.34999999999993492 0 0.95871855522754235 0.40006508612975411 0 0.95780851984364423 0.34215720972155339 0 1 0.64999999999986979 0 0.9578014258160763 0.65787212321113708 0 0.95867599106212187 0.60011091146651041 0 0.46666084890304671 0.57634471035397938 0 0.47793794143994173 0.52940715638744962 0 0.53245488764484505 0.55078124999999989 0 0.94999999999999996 0.29999999999999999 0 0.89898474358614167 0.25391965591104898 0 0.94399509803921056 0.24399509803922639 0 0.94999999999979179 1 0 0.89898474358632463 0.95391965591118966 0 0.94399509803919068 0.9439950980391687 0 0 0.65000000000104008 0 0.050069554451969707 0.61308520079857043 0 0.046634677244967337 0.671418230738282 0 0 0.35000000000145642 0 0.046389130980076937 0.32668781832131749 0 0.050583896093752537 0.38543522283434112 0 0.50202631463681879 0.87892870825713787 0 0.50627822638148745 0.8263979829520941 0 0.55899371797446828 0.85003102233514438 0 0.54782696902220018 0.79245182748204157 0 0.55899371797446828 0.85003102233514438 0 0.50627822638148745 0.8263979829520941 0 0.50945740445113552 0.75476055527778108 0 0.5 0.69999999999999996 0 0.55363780716230748 0.74348740161571747 0 0.84999999999965292 1 0 0.85170973911348691 0.93569607295217616 0 0.89898474358632463 0.95391965591118966 0 0.84999999999999987 0.29999999999999999 0 0.8517097391133297 0.2356960729520409 0 0.89898474358614167 0.25391965591104898 0 0.86956835336234861 0.571283299838105 0 0.82862096804812391 0.55037090955459045 0 0.86907294890112186 0.52008116128001669 0 0.49102375406324739 0.49123754822244059 0 0.53330375813596242 0.50827942741749099 0 0.47793794143994173 0.52940715638744962 0 0.57611405284611883 0.50165903596042916 0 0.61547661924074692 0.48539576058873962 0 0.62042975506801734 0.54295974692364424 0 0.71406021706547751 0.63292083137662503 0 0.67529834988829951 0.61613270668143583 0 0.71809016091162536 0.58185040402320831 0 0.65000000000104008 1 0 0.62065498684670595 0.95224934003983619 0 0.68015064798562208 0.95924320340003011 0 0.84999999999960507 0 0 0.899991664607802 0.045289349238254978 0 0.85491058998398861 0.060047533455626502 0 0.84999999999999987 0.69999999999999996 0 0.89999166460796554 0.74528934923809909 0 0.85491058998424563 0.76004753345552634 0 0.89999999999999991 0.29999999999999999 0 0.89898474358614167 0.25391965591104898 0 0.94999999999999996 0.29999999999999999 0 0.94999999999979179 1 0 0.89999999999958358 1 0 0.89898474358632463 0.95391965591118966 0 0.86411095495256451 0.42388805655111889 0 0.81308179852519835 0.39754945808726527 0 0.86844634540301924 0.38530937474099819 0 0.5 0.29999999999999999 0 0.49695729691142171 0.25014895411178018 0 0.54248833945060504 0.2520322959927106 0 0.86411095495256451 0.42388805655111889 0 0.81973119833356312 0.43505687159469048 0 0.81308179852519835 0.39754945808726527 0 0.67323294229744413 0.57556450033612505 0 0.71809016091162536 0.58185040402320831 0 0.67529834988829951 0.61613270668143583 0 0.6236733212988993 0.14864538214901801 0 0.68391457121233579 0.14440470121196541 0 0.64011864159029941 0.18789607982138171 0 0 0.050000000000207989 0 0.053064897599215843 0.048131547304697528 0 0.044310582753132287 0.101412518374475 0 0 0.94999999999979179 0 0.0443105827531413 0.89858748162559932 0 0.053064897599294662 0.95186845269532028 0 1 0.34999999999993492 0 1 0.39999999999978308 0 0.95871855522754235 0.40006508612975411 0 1 0.59999999999973963 0 1 0.64999999999986979 0 0.95867599106212187 0.60011091146651041 0 0 0.84999999999965292 0 0.065374659239661639 0.8551091961254178 0 0.0443105827531413 0.89858748162559932 0 0 0.15000000000062411 0 0.044310582753132287 0.101412518374475 0 0.065374659239632718 0.1448908038746782 0 0.16500388252850301 0.66612077714085194 0 0.1020579365089687 0.69352219419301997 0 0.1241190223511371 0.64391885572885044 0 0.14999999999970359 0 0 0.14618258501891079 0.062070108745602003 0 0.10266856499169109 0.044518360900210059 0 0.15000000000062411 1 0 0.10266856499240549 0.95548163909968886 0 0.14617343800780541 0.93808063414349496 0 0.7152569930854884 0.5237994455134295 0 0.67569444444444449 0.53500863336860327 0 0.69385896817107129 0.48377516041410151 0 0.6541250972820879 0.49999999999999989 0 0.62042975506801734 0.54295974692364424 0 0.61547661924074692 0.48539576058873962 0 0.94999999999999996 0.69999999999999996 0 0.94399509803918602 0.75600490196082126 0 0.89999166460796554 0.74528934923809909 0 0.94999999999986839 0 0 0.94399509803922566 0.056004901960802607 0 0.899991664607802 0.045289349238254978 0 0.6541250972820879 0.49999999999999989 0 0.69385896817107129 0.48377516041410151 0 0.67569444444444449 0.53500863336860327 0 0.82862096804812391 0.55037090955459045 0 0.81723410853263523 0.59419663659258926 0 0.77151014687832564 0.54436834383023036 0 0.7250000000005199 0.89375000000045834 0 0.66412543161245952 0.88015090885499059 0 0.68697391633157634 0.84450604838764298 0 0 0.94999999999979179 0 0 0.89999999999958358 0 0.0443105827531413 0.89858748162559932 0 0 0.10000000000041601 0 0 0.050000000000207989 0 0.044310582753132287 0.101412518374475 0 0.16500388252850301 0.66612077714085194 0 0.15332765547575641 0.71200081858233666 0 0.1020579365089687 0.69352219419301997 0 0.90299850604011456 0.79563452813489832 0 0.93677536231884972 0.85000000000000286 0 0.88088768115933802 0.84674609810493673 0 0.90299850604006393 0.09563452813493091 0 0.93677536231883773 0.14999999999999089 0 0.88088768115941807 0.14674609810479519 0 0.68391457121233579 0.14440470121196541 0 0.6865991819015953 0.189116534044597 0 0.64011864159029941 0.18789607982138171 0 0.085622222639554768 0.53333248912060549 0 0.1216098864341134 0.50637075089503902 0 0.1154888278694548 0.56733818459978413 0 0.21858834311891909 0.81980263716112767 0 0.22556077506376701 0.77837424984191617 0 0.26104540868854792 0.81401944968719064 0 0.81723410853263523 0.59419663659258926 0 0.77293540622714185 0.59448302402785813 0 0.77151014687832564 0.54436834383023036 0 0.1154888278694548 0.56733818459978413 0 0.1216098864341134 0.50637075089503902 0 0.14934928745814749 0.55042914607228977 0 0.1216098864341134 0.50637075089503902 0 0.068743045408989428 0.48853989837882689 0 0.113541300460994 0.46208784312094731 0 0.078358742472063481 0.43365249433908948 0 0.113541300460994 0.46208784312094731 0 0.068743045408989428 0.48853989837882689 0 0.83573492347052902 0.36590755630746369 0 0.81308179852519835 0.39754945808726527 0 0.78145581580700685 0.34881365920033602 0 0.57611405284611883 0.50165903596042916 0 0.62042975506801734 0.54295974692364424 0 0.57435499076887508 0.54267261987897775 0 0.86956835336234861 0.571283299838105 0 0.81723410853263523 0.59419663659258926 0 0.82862096804812391 0.55037090955459045 0 0.46666084890304671 0.57634471035397938 0 0.53245488764484505 0.55078124999999989 0 0.5166924242153631 0.59825134841919447 0 0.89999999999999991 0.69999999999999996 0 0.94999999999999996 0.69999999999999996 0 0.89999166460796554 0.74528934923809909 0 0.89999999999973679 0 0 0.94999999999986839 0 0 0.899991664607802 0.045289349238254978 0 0.84999999999960507 0 0 0.89999999999973679 0 0 0.899991664607802 0.045289349238254978 0 0.84999999999999987 0.69999999999999996 0 0.89999999999999991 0.69999999999999996 0 0.89999166460796554 0.74528934923809909 0 0.43545892161006339 0.61093128915313821 0 0.4089290844030305 0.58728915500154233 0 0.46666084890304671 0.57634471035397938 0 0.1650278706801647 0.38791388161335733 0 0.1117088112799664 0.38831403004970022 0 0.14223753364722069 0.3341983344262433 0 0.087545339447545459 0.35122518864182262 0 0.14223753364722069 0.3341983344262433 0 0.1117088112799664 0.38831403004970022 0 0.6916490518212759 0.75387992374886192 0 0.72501250972655151 0.74067302935308721 0 0.72500000000000064 0.7952620967744265 0 0.72501250972655151 0.74067302935308721 0 0.75841349681148107 0.75422312624214749 0 0.72500000000000064 0.7952620967744265 0 0.57412547362576272 0.58273804879550706 0 0.53245488764484505 0.55078124999999989 0 0.57435499076887508 0.54267261987897775 0 1 0.54999999999963112 0 0.95867599106212187 0.60011091146651041 0 0.93732437411268477 0.55911392101136159 0 1 0.44999999999963131 0 0.93814194660195893 0.44426664081746747 0 0.95871855522754235 0.40006508612975411 0 0.4089290844030305 0.58728915500154233 0 0.42644501560315817 0.54603747078095544 0 0.46666084890304671 0.57634471035397938 0 0.89999999999958358 1 0 0.84999999999965292 1 0 0.89898474358632463 0.95391965591118966 0 0.84999999999999987 0.29999999999999999 0 0.89898474358614167 0.25391965591104898 0 0.89999999999999991 0.29999999999999999 0 0.29999999999926641 0 0 0.32541448401678508 0.046215317981507749 0 0.27499999999933927 0.060310814194988557 0 0.30000000000124832 1 0 0.27609987656793722 0.94991445621608572 0 0.32544832635163229 0.95485394099568932 0 0.57412547362576272 0.58273804879550706 0 0.62042975506801734 0.54295974692364424 0 0.63065402604362242 0.59661356661633302 0 0.5 0.29999999999999999 0 0.54248833945060504 0.2520322959927106 0 0.54999999999999993 0.29999999999999999 0 0.67323294229744413 0.57556450033612505 0 0.62042975506801734 0.54295974692364424 0 0.67569444444444449 0.53500863336860327 0 0.6541250972820879 0.49999999999999989 0 0.67569444444444449 0.53500863336860327 0 0.62042975506801734 0.54295974692364424 0 1 0.14999999999961891 0 1 0.19999999999974799 0 0.95391631417672862 0.19584263333809451 0 1 0.84999999999982645 0 1 0.8999999999998336 0 0.95391631417670719 0.89584263333814784 0 1 0.7999999999998193 0 1 0.84999999999982645 0 0.95386563387742829 0.80414874155775029 0 1 0.099999999999753911 0 1 0.14999999999961891 0 0.95386563387744361 0.1041487415577465 0 0.4656888918609538 0.78493261229743638 0 0.50627822638148745 0.8263979829520941 0 0.45677673713123867 0.84253684404072415 0 0.6879972333610942 0.43038561374960838 0 0.72622533758026719 0.40265885511101601 0 0.73483647259922602 0.44789725365921768 0 0.67323294229744413 0.57556450033612505 0 0.67569444444444449 0.53500863336860327 0 0.71809016091162536 0.58185040402320831 0 0.7152569930854884 0.5237994455134295 0 0.71809016091162536 0.58185040402320831 0 0.67569444444444449 0.53500863336860327 0 0.65394964615507722 0.22666784374016369 0 0.59814117807200873 0.23398510860739519 0 0.64011864159029941 0.18789607982138171 0 0.55000000000173355 1 0 0.52122150208832174 0.94089974453840242 0 0.57382506491224949 0.9629411906298494 0 0.39801143831225599 0.16651381068160659 0 0.44288491854585582 0.14116182884956319 0 0.42905200079338551 0.19982395548231649 0 0.47357141910802508 0.1873585799078378 0 0.42905200079338551 0.19982395548231649 0 0.44288491854585582 0.14116182884956319 0 0.90594285160987287 0.4141265964174129 0 0.88594198078881503 0.46167788676578442 0 0.86411095495256451 0.42388805655111889 0 0.65507451745379841 0.92229208810758578 0 0.68015064798562208 0.95924320340003011 0 0.62065498684670595 0.95224934003983619 0 0.35312867752657662 0.084946736076730367 0 0.39591832466117061 0.056982757562006353 0 0.39823268594401579 0.1116623613130045 0 0.43698630808430822 0.080423614171545449 0 0.39823268594401579 0.1116623613130045 0 0.39591832466117061 0.056982757562006353 0 0.4367309254023824 0.92065556789053882 0 0.39641108128798319 0.94356127926187128 0 0.39767323751400468 0.89584229130535065 0 0.35752321586431363 0.9185439911803448 0 0.39767323751400468 0.89584229130535065 0 0.39641108128798319 0.94356127926187128 0 0.77354604466818633 0.40378688774472771 0 0.77972660463949339 0.45529290596363098 0 0.73483647259922602 0.44789725365921768 0 0.5499999999988151 0 0 0.57396793757665954 0.037011367187645222 0 0.52375890611712683 0.059318771819432882 0 0.64753070846764316 0.77332939069435502 0 0.60294066490120068 0.80851322453934582 0 0.59636844454254345 0.75937156204589151 0 0.49102375406324739 0.49123754822244059 0 0.48858720058566618 0.43964267759203868 0 0.53823865529665704 0.45873898050322898 0 0.28307294598219601 0.50789252727458634 0 0.29110487519241501 0.56588143995431495 0 0.25115337790845271 0.54719303014923271 0 0.79680861578988083 0.92656778056766709 0 0.81159157511211755 0.88795995483179491 0 0.85170973911348691 0.93569607295217616 0 0.79680861578956375 0.22656778056752541 0 0.81283102246527783 0.1881007222486438 0 0.8517097391133297 0.2356960729520409 0 0.57412547362576272 0.58273804879550706 0 0.57435499076887508 0.54267261987897775 0 0.62042975506801734 0.54295974692364424 0 0.93814194660195893 0.44426664081746747 0 0.88594198078881503 0.46167788676578442 0 0.90594285160987287 0.4141265964174129 0 0.7152569930854884 0.5237994455134295 0 0.73947346780852752 0.49062440112282169 0 0.77151014687832564 0.54436834383023036 0 0 0.7000000000006934 0 0.046634677244967337 0.671418230738282 0 0.049706944316475897 0.72477277076253799 0 0 0.30000000000124832 0 0.049706944316556423 0.27522722923869108 0 0.046389130980076937 0.32668781832131749 0 0.59814117807200873 0.23398510860739519 0 0.59443395090188023 0.18455690917515069 0 0.64011864159029941 0.18789607982138171 0 0.21858834311891909 0.81980263716112767 0 0.26104540868854792 0.81401944968719064 0 0.2401283238295133 0.85648409884788523 0 0.39536230704883951 0.84069429572832477 0 0.45677673713123867 0.84253684404072415 0 0.44003836461056539 0.88093474584252718 0 0.086179601630648681 0.64647209519980475 0 0.050069554451969707 0.61308520079857043 0 0.1024350934457823 0.60772393977513839 0 0.077693244765132896 0.56932317963405099 0 0.1024350934457823 0.60772393977513839 0 0.050069554451969707 0.61308520079857043 0 0.078358742472063481 0.43365249433908948 0 0.050583896093752537 0.38543522283434112 0 0.1117088112799664 0.38831403004970022 0 0.087545339447545459 0.35122518864182262 0 0.1117088112799664 0.38831403004970022 0 0.050583896093752537 0.38543522283434112 0 0.33403534827021109 0.84402799729020661 0 0.35642984951668422 0.80994399665655703 0 0.39536230704883951 0.84069429572832477 0 0.28307294598219601 0.50789252727458634 0 0.33190227185843768 0.52715113583864037 0 0.29110487519241501 0.56588143995431495 0 0.2236846579037573 0.67380363126050236 0 0.19068556247388771 0.71028988922845504 0 0.16500388252850301 0.66612077714085194 0 0.26104540868854792 0.81401944968719064 0 0.22556077506376701 0.77837424984191617 0 0.2792923945214143 0.77665808831789485 0 0.38244435121258652 0.51653317813019495 0 0.37272913873093971 0.56192925302619479 0 0.33190227185843768 0.52715113583864037 0 0.25195515620380449 0.25883339815888678 0 0.29132859388405002 0.27203693976649962 0 0.24432083401701241 0.3006253385567515 0 0.29348325746214782 0.31350119524708198 0 0.24432083401701241 0.3006253385567515 0 0.29132859388405002 0.27203693976649962 0 0 0.89999999999958358 0 0 0.84999999999965292 0 0.0443105827531413 0.89858748162559932 0 0 0.15000000000062411 0 0 0.10000000000041601 0 0.044310582753132287 0.101412518374475 0 0.59999999999999976 0.69999999999999996 0 0.59636844454254345 0.75937156204589151 0 0.55363780716230748 0.74348740161571747 0 0.1650278706801647 0.38791388161335733 0 0.22033343844674469 0.36963382230740238 0 0.191953871957803 0.42546416763755879 0 0.52289427570932567 0.3932284363388488 0 0.46655310992796922 0.39650496622958609 0 0.49077833859261139 0.35229981449445641 0 0.91696753777131557 0.497780560203536 0 0.88594198078881503 0.46167788676578442 0 0.93814194660195893 0.44426664081746747 0 0.24999999999941211 0 0 0.27499999999933927 0.060310814194988557 0 0.22668068146512929 0.045875643423131329 0 0.25000000000104028 1 0 0.22850979588452081 0.95594428570238643 0 0.27609987656793722 0.94991445621608572 0 0.77846603114747959 0.49850927265137401 0 0.77151014687832564 0.54436834383023036 0 0.73947346780852752 0.49062440112282169 0 0.27499999999933927 0.060310814194988557 0 0.27474541102162192 0.11822029332053539 0 0.24218496799700481 0.089025544070598317 0 0.27270076654418179 0.87751467830216623 0 0.29209212897034281 0.84715728365233667 0 0.30864387279288652 0.89906554525974958 0 0.3096713403101819 0.085471541595262421 0 0.27474541102162192 0.11822029332053539 0 0.27499999999933927 0.060310814194988557 0 0.17933913398461551 0.2350063570234002 0 0.18124454140915969 0.18790916706335251 0 0.224700362040408 0.22206622194729711 0 0.18269480424590959 0.75905448272264375 0 0.22556077506376701 0.77837424984191617 0 0.17777405986036951 0.81832336108265358 0 0.35864759629805099 0.87963482415279515 0 0.33403534827021109 0.84402799729020661 0 0.39536230704883951 0.84069429572832477 0 0.77354604466818633 0.40378688774472771 0 0.73483647259922602 0.44789725365921768 0 0.72622533758026719 0.40265885511101601 0 0.80185942888539485 0.77452061303608133 0 0.85491058998424563 0.76004753345552634 0 0.84725310900444062 0.80779732082917555 0 0.80185942888501827 0.074520613036224564 0 0.85491058998398861 0.060047533455626502 0 0.84725310900442086 0.10779732082922661 0 0.086179601630648681 0.64647209519980475 0 0.046634677244967337 0.671418230738282 0 0.050069554451969707 0.61308520079857043 0 0.087545339447545459 0.35122518864182262 0 0.050583896093752537 0.38543522283434112 0 0.046389130980076937 0.32668781832131749 0 0 0.75000000000034661 0 0.049706944316475897 0.72477277076253799 0 0.04408157711937423 0.7728941757575627 0 0 0.25000000000104028 0 0.044081577119474857 0.2271058242433576 0 0.049706944316556423 0.27522722923869108 0 0.52289427570932567 0.3932284363388488 0 0.56836770495988642 0.3523062350852913 0 0.57744073070774993 0.41535148636609359 0 0.6084546825910605 0.37989672713932537 0 0.57744073070774993 0.41535148636609359 0 0.56836770495988642 0.3523062350852913 0 0.61343887413683884 0.856862479058357 0 0.55899371797446828 0.85003102233514438 0 0.60294066490120068 0.80851322453934582 0 0.54782696902220018 0.79245182748204157 0 0.60294066490120068 0.80851322453934582 0 0.55899371797446828 0.85003102233514438 0 0.40326160981139969 0.73346192995102844 0 0.36622285152418499 0.69092437780804039 0 0.43323420005758778 0.6913544522562407 0 0.52289427570932567 0.3932284363388488 0 0.48858720058566618 0.43964267759203868 0 0.46655310992796922 0.39650496622958609 0 0.15720202157091859 0.60665697304410315 0 0.1154888278694548 0.56733818459978413 0 0.14934928745814749 0.55042914607228977 0 0.6879972333610942 0.43038561374960838 0 0.73483647259922602 0.44789725365921768 0 0.69385896817107129 0.48377516041410151 0 0.7250000000005199 0.89375000000045834 0 0.68987011941058407 0.92105047536677087 0 0.66412543161245952 0.88015090885499059 0 0.83573492347052902 0.36590755630746369 0 0.78145581580700685 0.34881365920033602 0 0.82500000000000062 0.33010209762754811 0 0.82862096804812391 0.55037090955459045 0 0.81441713509985358 0.51161854125224959 0 0.86907294890112186 0.52008116128001669 0 0.19670163708476801 0.31472518408333222 0 0.14223753364722069 0.3341983344262433 0 0.168349569971391 0.28054490850913671 0 0.50202631463681879 0.87892870825713787 0 0.45677673713123867 0.84253684404072415 0 0.50627822638148745 0.8263979829520941 0 0.099999999999814668 0 0 0.14999999999970359 0 0 0.10266856499169109 0.044518360900210059 0 0.15000000000062411 1 0 0.10000000000041601 1 0 0.10266856499240549 0.95548163909968886 0 0.67323294229744413 0.57556450033612505 0 0.63065402604362242 0.59661356661633302 0 0.62042975506801734 0.54295974692364424 0 0.083105206071467416 0.20007701332709979 0 0.13737030665753211 0.20313708640667491 0 0.095326043202144745 0.24554465089224409 0 0.083105206071452636 0.79992298667296435 0 0.090953281884486245 0.7564451946902494 0 0.1382744753146134 0.79650574229207483 0 0.50000000000205869 1 0 0.47135117303824892 0.95556877749289892 0 0.52122150208832174 0.94089974453840242 0 0.49999999999869432 0 0 0.52375890611712683 0.059318771819432882 0 0.47040171442036788 0.044141676406503738 0 0.4656888918609538 0.78493261229743638 0 0.45582236402875981 0.73896743678908217 0 0.50945740445113552 0.75476055527778108 0 0.5 0.69999999999999996 0 0.50945740445113552 0.75476055527778108 0 0.45582236402875981 0.73896743678908217 0 0.55306006949600994 0.20198184231352201 0 0.56202748619534593 0.15054058349222879 0 0.59443395090188023 0.18455690917515069 0 0.6236733212988993 0.14864538214901801 0 0.59443395090188023 0.18455690917515069 0 0.56202748619534593 0.15054058349222879 0 0.57412547362576272 0.58273804879550706 0 0.5498280205245758 0.6290146943450976 0 0.5166924242153631 0.59825134841919447 0 0.91696753777131557 0.497780560203536 0 0.93814194660195893 0.44426664081746747 0 0.96228564064454991 0.48206450662049471 0 0.15720202157091859 0.60665697304410315 0 0.16500388252850301 0.66612077714085194 0 0.1241190223511371 0.64391885572885044 0 0.44288491854585582 0.14116182884956319 0 0.47881186583059909 0.093591717165689425 0 0.48466639505193998 0.1421439844745814 0 1 0.54999999999963112 0 0.93732437411268477 0.55911392101136159 0 0.95631871884947484 0.51827533208233789 0 0.57724883562309992 0.92155686857100794 0 0.57382506491224949 0.9629411906298494 0 0.52122150208832174 0.94089974453840242 0 0.85170973911348691 0.93569607295217616 0 0.81159157511211755 0.88795995483179491 0 0.85600844944837662 0.88483418979512773 0 0.8517097391133297 0.2356960729520409 0 0.81283102246527783 0.1881007222486438 0 0.85600844944842547 0.1848341897950983 0 0.27866744612395528 0.38416094670951489 0 0.29124338931648802 0.43334555462578611 0 0.24049127783545701 0.41270748208749802 0 0.6084546825910605 0.37989672713932537 0 0.56836770495988642 0.3523062350852913 0 0.61959173890754571 0.33832250091341232 0 0.20050006573841939 0.53248514016039872 0 0.25115337790845271 0.54719303014923271 0 0.22549374774072969 0.58452645269293457 0 0.26573297623774761 0.59828298563722948 0 0.22549374774072969 0.58452645269293457 0 0.25115337790845271 0.54719303014923271 0 0.26104540868854792 0.81401944968719064 0 0.29209212897034281 0.84715728365233667 0 0.2401283238295133 0.85648409884788523 0 0.6236733212988993 0.14864538214901801 0 0.65290632656860115 0.11434202593454081 0 0.68391457121233579 0.14440470121196541 0 0.19901705110390991 0.9175543425573498 0 0.19741632902693801 0.86755867406447229 0 0.24536017905392571 0.90704567837671446 0 0.72500000000000064 0.7952620967744265 0 0.76901770135486491 0.84293557325473656 0 0.72863726579783861 0.85390518901155588 0 0.72500000000000064 0.7952620967744265 0 0.72863726579783861 0.85390518901155588 0 0.68697391633157634 0.84450604838764298 0 0.7250000000005199 0.89375000000045834 0 0.68697391633157634 0.84450604838764298 0 0.72863726579783861 0.85390518901155588 0 0.72525833953073282 0.1032114801687094 0 0.77144070960558853 0.14311854477243749 0 0.72634814642510737 0.16106886917518889 0 0.72525833953073282 0.1032114801687094 0 0.72634814642510737 0.16106886917518889 0 0.68391457121233579 0.14440470121196541 0 0.36622285152418499 0.69092437780804039 0 0.3977710372045391 0.65868194622830212 0 0.43323420005758778 0.6913544522562407 0 0 0.65000000000104008 0 0 0.60000000000138687 0 0.050069554451969707 0.61308520079857043 0 0 0.40000000000166441 0 0 0.35000000000145642 0 0.050583896093752537 0.38543522283434112 0 0.22033343844674469 0.36963382230740238 0 0.24049127783545701 0.41270748208749802 0 0.191953871957803 0.42546416763755879 0 0.5 0.29999999999999999 0 0.4604742573284204 0.27846934318264788 0 0.49695729691142171 0.25014895411178018 0 0.19741632902693801 0.86755867406447229 0 0.2401283238295133 0.85648409884788523 0 0.24536017905392571 0.90704567837671446 0 0 0.50000000000205869 0 0.068743045408989428 0.48853989837882689 0 0.044576108720083309 0.53509043209532614 0 0.15000000000062411 1 0 0.14617343800780541 0.93808063414349496 0 0.18474005699953849 0.96231585248064622 0 0.14999999999970359 0 0 0.184418230509967 0.038773194583122873 0 0.14618258501891079 0.062070108745602003 0 0.57667858002728545 0.078486105337742612 0 0.52375890611712683 0.059318771819432882 0 0.57396793757665954 0.037011367187645222 0 0.113541300460994 0.46208784312094731 0 0.078358742472063481 0.43365249433908948 0 0.13773355295499351 0.42497777642586831 0 0.77354604466818633 0.40378688774472771 0 0.78145581580700685 0.34881365920033602 0 0.81308179852519835 0.39754945808726527 0 0.38244435121258652 0.51653317813019495 0 0.33190227185843768 0.52715113583864037 0 0.35024835142131061 0.48654922671676981 0 0.64753070846764316 0.77332939069435502 0 0.65005442820240822 0.82644988530054031 0 0.60294066490120068 0.80851322453934582 0 0.15720202157091859 0.60665697304410315 0 0.1024350934457823 0.60772393977513839 0 0.1154888278694548 0.56733818459978413 0 0.90416666666660628 0.9041666666666166 0 0.85600844944837662 0.88483418979512773 0 0.88088768115933802 0.84674609810493673 0 0.90416666666668166 0.20416666666667119 0 0.85600844944842547 0.1848341897950983 0 0.88088768115941807 0.14674609810479519 0 0.078358742472063481 0.43365249433908948 0 0.1117088112799664 0.38831403004970022 0 0.13773355295499351 0.42497777642586831 0 0.38244435121258652 0.51653317813019495 0 0.3908716102680424 0.47010282357248828 0 0.43507373378304309 0.49699695397193322 0 0.90299850604011456 0.79563452813489832 0 0.95386563387742829 0.80414874155775029 0 0.93677536231884972 0.85000000000000286 0 0.90416666666660628 0.9041666666666166 0 0.93677536231884972 0.85000000000000286 0 0.95391631417670719 0.89584263333814784 0 0.90299850604006393 0.09563452813493091 0 0.95386563387744361 0.1041487415577465 0 0.93677536231883773 0.14999999999999089 0 0.90416666666668166 0.20416666666667119 0 0.93677536231883773 0.14999999999999089 0 0.95391631417672862 0.19584263333809451 0 0.39536230704883951 0.84069429572832477 0 0.44003836461056539 0.88093474584252718 0 0.39767323751400468 0.89584229130535065 0 0.51076801031701946 0.1202837388510348 0 0.52375890611712683 0.059318771819432882 0 0.54979595918804436 0.1060565713905809 0 0.57667858002728545 0.078486105337742612 0 0.54979595918804436 0.1060565713905809 0 0.52375890611712683 0.059318771819432882 0 0.57724883562309992 0.92155686857100794 0 0.52122150208832174 0.94089974453840242 0 0.54783390826260769 0.89287767010860219 0 0.50202631463681879 0.87892870825713787 0 0.54783390826260769 0.89287767010860219 0 0.52122150208832174 0.94089974453840242 0 0.087545339447545459 0.35122518864182262 0 0.093851963071650835 0.30582068233324772 0 0.14223753364722069 0.3341983344262433 0 0.54999999999999993 0.69999999999999996 0 0.59999999999999976 0.69999999999999996 0 0.55363780716230748 0.74348740161571747 0 0.083105206071452636 0.79992298667296435 0 0.1074251789111534 0.83564394292147814 0 0.065374659239661639 0.8551091961254178 0 0.083105206071467416 0.20007701332709979 0 0.065374659239632718 0.1448908038746782 0 0.106902708054812 0.16453234188234539 0 0.52289427570932567 0.3932284363388488 0 0.53823865529665704 0.45873898050322898 0 0.48858720058566618 0.43964267759203868 0 0.13737030665753211 0.20313708640667491 0 0.14377654328998779 0.2442024734791064 0 0.095326043202144745 0.24554465089224409 0 0.1382744753146134 0.79650574229207483 0 0.090953281884486245 0.7564451946902494 0 0.14335651144331049 0.75565258250209677 0 0.27270076654418179 0.87751467830216623 0 0.30864387279288652 0.89906554525974958 0 0.24536017905392571 0.90704567837671446 0 0.27609987656793722 0.94991445621608572 0 0.24536017905392571 0.90704567837671446 0 0.30864387279288652 0.89906554525974958 0 0.90299850604011456 0.79563452813489832 0 0.84725310900444062 0.80779732082917555 0 0.85491058998424563 0.76004753345552634 0 0.90299850604006393 0.09563452813493091 0 0.84725310900442086 0.10779732082922661 0 0.85491058998398861 0.060047533455626502 0 1 0.54999999999963112 0 1 0.59999999999973963 0 0.95867599106212187 0.60011091146651041 0 1 0.39999999999978308 0 1 0.44999999999963131 0 0.95871855522754235 0.40006508612975411 0 0.28040350263641872 0.23054717217092141 0 0.25195515620380449 0.25883339815888678 0 0.224700362040408 0.22206622194729711 0 0.84999999999999987 0.29999999999999999 0 0.87430060258887643 0.34056085888204451 0 0.82500000000000062 0.33010209762754811 0 0.84999999999999987 0.69999999999999996 0 0.82457059160610424 0.66831947184359608 0 0.87712158428786946 0.65709029563313581 0 0.86956835336234861 0.571283299838105 0 0.87159648282691515 0.61285406320581504 0 0.81723410853263523 0.59419663659258926 0 0.43698630808430822 0.080423614171545449 0 0.47881186583059909 0.093591717165689425 0 0.44288491854585582 0.14116182884956319 0 1 0.44999999999963131 0 0.96228564064454991 0.48206450662049471 0 0.93814194660195893 0.44426664081746747 0 0.35752321586431363 0.9185439911803448 0 0.30864387279288652 0.89906554525974958 0 0.35864759629805099 0.87963482415279515 0 0.29124338931648802 0.43334555462578611 0 0.25982634974572738 0.46097799597715272 0 0.24049127783545701 0.41270748208749802 0 0.51076801031701946 0.1202837388510348 0 0.56202748619534593 0.15054058349222879 0 0.51729576145820033 0.1683240575987815 0 0.55306006949600994 0.20198184231352201 0 0.51729576145820033 0.1683240575987815 0 0.56202748619534593 0.15054058349222879 0 0.26429849586623999 0.19346700179430079 0 0.28040350263641872 0.23054717217092141 0 0.224700362040408 0.22206622194729711 0 0.51076801031701946 0.1202837388510348 0 0.48466639505193998 0.1421439844745814 0 0.47881186583059909 0.093591717165689425 0 0.2185883431182947 0.18019736283949719 0 0.26429849586623999 0.19346700179430079 0 0.224700362040408 0.22206622194729711 0 0.18269480424590959 0.75905448272264375 0 0.2248999640082178 0.72584299459689172 0 0.22556077506376701 0.77837424984191617 0 0.51076801031701946 0.1202837388510348 0 0.47881186583059909 0.093591717165689425 0 0.52375890611712683 0.059318771819432882 0 0.50202631463681879 0.87892870825713787 0 0.52122150208832174 0.94089974453840242 0 0.47401147028110507 0.91529957330468115 0 0 0.84999999999965292 0 0.038512288486097702 0.8155852717111195 0 0.065374659239661639 0.8551091961254178 0 0 0.15000000000062411 0 0.065374659239632718 0.1448908038746782 0 0.038512288486115001 0.1844147282893184 0 0.2185883431182947 0.18019736283949719 0 0.224700362040408 0.22206622194729711 0 0.18124454140915969 0.18790916706335251 0 0.21858834311891909 0.81980263716112767 0 0.17777405986036951 0.81832336108265358 0 0.22556077506376701 0.77837424984191617 0 0.1215415378367805 0.72939333680004137 0 0.1020579365089687 0.69352219419301997 0 0.15332765547575641 0.71200081858233666 0 0.49695729691142171 0.25014895411178018 0 0.50760557329222289 0.20700468884612061 0 0.54248833945060504 0.2520322959927106 0 0.15720202157091859 0.60665697304410315 0 0.14934928745814749 0.55042914607228977 0 0.18381867841758909 0.57774125163628387 0 0.90416666666660628 0.9041666666666166 0 0.85170973911348691 0.93569607295217616 0 0.85600844944837662 0.88483418979512773 0 0.90416666666668166 0.20416666666667119 0 0.8517097391133297 0.2356960729520409 0 0.85600844944842547 0.1848341897950983 0 0.17933913398461551 0.2350063570234002 0 0.13737030665753211 0.20313708640667491 0 0.18124454140915969 0.18790916706335251 0 0.18269480424590959 0.75905448272264375 0 0.17777405986036951 0.81832336108265358 0 0.1382744753146134 0.79650574229207483 0 0.1216098864341134 0.50637075089503902 0 0.15801167086041079 0.46008690540259539 0 0.16618607197337229 0.50652878253548905 0 0.50760557329222289 0.20700468884612061 0 0.55306006949600994 0.20198184231352201 0 0.54248833945060504 0.2520322959927106 0 0.75000000000034661 1 0 0.7000000000006934 1 0 0.7250000000005199 0.94981617647078953 0 0.69999999999999984 0.29999999999999999 0 0.72500000000000064 0.2498161764706 0 0.74999999999999989 0.29999999999999999 0 0.72525833953073282 0.1032114801687094 0 0.68391457121233579 0.14440470121196541 0 0.68330259535470161 0.10038702501083881 0 0.43249999999999988 0.43937499999999979 0 0.46655310992796922 0.39650496622958609 0 0.48858720058566618 0.43964267759203868 0 0.19901705110390991 0.9175543425573498 0 0.14617343800780541 0.93808063414349496 0 0.16206583317966519 0.89685560785156404 0 0.19922788606653311 0.085920220746880993 0 0.16141998738593399 0.10404039647458049 0 0.14618258501891079 0.062070108745602003 0 0.31378396441836959 0.70157213313026345 0 0.26439878998046262 0.7048065392091396 0 0.27820712747429932 0.65530134213254643 0 0.1216098864341134 0.50637075089503902 0 0.113541300460994 0.46208784312094731 0 0.15801167086041079 0.46008690540259539 0 0.6084546825910605 0.37989672713932537 0 0.65481233915350323 0.35652751921065562 0 0.63912439215427275 0.41063340167983359 0 0.19901705110390991 0.9175543425573498 0 0.18474005699953849 0.96231585248064622 0 0.14617343800780541 0.93808063414349496 0 0.19922788606653311 0.085920220746880993 0 0.14618258501891079 0.062070108745602003 0 0.184418230509967 0.038773194583122873 0 0.38244435121258652 0.51653317813019495 0 0.35024835142131061 0.48654922671676981 0 0.3908716102680424 0.47010282357248828 0 0.82709327591102189 0.14937141670914489 0 0.77144070960558853 0.14311854477243749 0 0.80076557130237269 0.1154587552654202 0 0.82709327591091286 0.84937141670920724 0 0.76901770135486491 0.84293557325473656 0 0.80041942726660109 0.81543261647703358 0 0.43698630808430822 0.080423614171545449 0 0.44288491854585582 0.14116182884956319 0 0.39823268594401579 0.1116623613130045 0 0.39801143831225599 0.16651381068160659 0 0.39823268594401579 0.1116623613130045 0 0.44288491854585582 0.14116182884956319 0 0.36575549820117997 0.31677992835137742 0 0.3786248352540974 0.27082301512024259 0 0.41914690343363781 0.30688979866601612 0 0.42377727103934271 0.25099357235810238 0 0.41914690343363781 0.30688979866601612 0 0.3786248352540974 0.27082301512024259 0 0.049706944316475897 0.72477277076253799 0 0.1020579365089687 0.69352219419301997 0 0.090953281884486245 0.7564451946902494 0 0.1215415378367805 0.72939333680004137 0 0.090953281884486245 0.7564451946902494 0 0.1020579365089687 0.69352219419301997 0 0.1247745017231483 0.27198077544791172 0 0.093851963071650835 0.30582068233324772 0 0.095326043202144745 0.24554465089224409 0 0.049706944316556423 0.27522722923869108 0 0.095326043202144745 0.24554465089224409 0 0.093851963071650835 0.30582068233324772 0 0.77354604466818633 0.40378688774472771 0 0.81973119833356312 0.43505687159469048 0 0.77972660463949339 0.45529290596363098 0 0.43249999999999988 0.43937499999999979 0 0.43507373378304309 0.49699695397193322 0 0.3908716102680424 0.47010282357248828 0 0.26573297623774761 0.59828298563722948 0 0.2459498854893499 0.63248470766216769 0 0.22549374774072969 0.58452645269293457 0 0.72500000000000064 0.7952620967744265 0 0.77094201086366854 0.79647480515688507 0 0.76901770135486491 0.84293557325473656 0 0.72525833953073282 0.1032114801687094 0 0.76878382444651716 0.097147941686331368 0 0.77144070960558853 0.14311854477243749 0 0.72500000000000064 0.7952620967744265 0 0.68697391633157634 0.84450604838764298 0 0.68024162096458085 0.79868546898116533 0 0.31378396441836959 0.70157213313026345 0 0.29904318922293632 0.74132814928635593 0 0.26439878998046262 0.7048065392091396 0 0.31378396441836959 0.70157213313026345 0 0.35415581127540569 0.73730480045900215 0 0.29904318922293632 0.74132814928635593 0 0.61343887413683884 0.856862479058357 0 0.65005442820240822 0.82644988530054031 0 0.66412543161245952 0.88015090885499059 0 0.68697391633157634 0.84450604838764298 0 0.66412543161245952 0.88015090885499059 0 0.65005442820240822 0.82644988530054031 0 0.083411279318375747 0.91030024466934134 0 0.065374659239661639 0.8551091961254178 0 0.10562472963403439 0.87143394428979881 0 0.083411279318303222 0.089699755330707398 0 0.1053400320299198 0.12877248826361379 0 0.065374659239632718 0.1448908038746782 0 0.55306006949600994 0.20198184231352201 0 0.59443395090188023 0.18455690917515069 0 0.59814117807200873 0.23398510860739519 0 0.84999999999999987 0.29999999999999999 0 0.89999999999999991 0.29999999999999999 0 0.87430060258887643 0.34056085888204451 0 0.84999999999999987 0.69999999999999996 0 0.87712158428786946 0.65709029563313581 0 0.89999999999999991 0.69999999999999996 0 0.34258405725730701 0.4444034294386992 0 0.3908716102680424 0.47010282357248828 0 0.35024835142131061 0.48654922671676981 0 0.26573297623774761 0.59828298563722948 0 0.31502927232353312 0.6134992213375432 0 0.27820712747429932 0.65530134213254643 0 0.91696753777131557 0.497780560203536 0 0.86907294890112186 0.52008116128001669 0 0.88594198078881503 0.46167788676578442 0 0.84723782639812573 0.48638347960178252 0 0.88594198078881503 0.46167788676578442 0 0.86907294890112186 0.52008116128001669 0 0.7152569930854884 0.5237994455134295 0 0.77151014687832564 0.54436834383023036 0 0.71809016091162536 0.58185040402320831 0 0.90416666666660628 0.9041666666666166 0 0.89898474358632463 0.95391965591118966 0 0.85170973911348691 0.93569607295217616 0 0.90416666666668166 0.20416666666667119 0 0.89898474358614167 0.25391965591104898 0 0.8517097391133297 0.2356960729520409 0 0.91750694127107502 0.36982372220068471 0 0.95780851984364423 0.34215720972155339 0 0.95871855522754235 0.40006508612975411 0 0.91750694127105259 0.63017627779935648 0 0.95867599106212187 0.60011091146651041 0 0.9578014258160763 0.65787212321113708 0 0.90299850604011456 0.79563452813489832 0 0.88088768115933802 0.84674609810493673 0 0.84725310900444062 0.80779732082917555 0 0.90299850604006393 0.09563452813493091 0 0.88088768115941807 0.14674609810479519 0 0.84725310900442086 0.10779732082922661 0 0.1216098864341134 0.50637075089503902 0 0.16618607197337229 0.50652878253548905 0 0.14934928745814749 0.55042914607228977 0 0.20050006573841939 0.53248514016039872 0 0.14934928745814749 0.55042914607228977 0 0.16618607197337229 0.50652878253548905 0 0.80185942888539485 0.77452061303608133 0 0.84725310900444062 0.80779732082917555 0 0.80041942726660109 0.81543261647703358 0 0.80185942888501827 0.074520613036224564 0 0.84725310900442086 0.10779732082922661 0 0.80076557130237269 0.1154587552654202 0 0.083105206071452636 0.79992298667296435 0 0.065374659239661639 0.8551091961254178 0 0.038512288486097702 0.8155852717111195 0 0.083105206071467416 0.20007701332709979 0 0.038512288486115001 0.1844147282893184 0 0.065374659239632718 0.1448908038746782 0 0.54782696902220018 0.79245182748204157 0 0.59636844454254345 0.75937156204589151 0 0.60294066490120068 0.80851322453934582 0 0.083411279318375747 0.91030024466934134 0 0.0443105827531413 0.89858748162559932 0 0.065374659239661639 0.8551091961254178 0 0.083411279318303222 0.089699755330707398 0 0.065374659239632718 0.1448908038746782 0 0.044310582753132287 0.101412518374475 0 0.84999999999965292 1 0 0.81486180804382891 0.96321394949790495 0 0.85170973911348691 0.93569607295217616 0 0.84999999999999987 0.29999999999999999 0 0.81486180804364938 0.26321394949780091 0 0.8517097391133297 0.2356960729520409 0 0.4656888918609538 0.78493261229743638 0 0.45677673713123867 0.84253684404072415 0 0.42609163930740518 0.80361684430568059 0 0.39536230704883951 0.84069429572832477 0 0.42609163930740518 0.80361684430568059 0 0.45677673713123867 0.84253684404072415 0 0.6236733212988993 0.14864538214901801 0 0.56202748619534593 0.15054058349222879 0 0.58516465772821369 0.11653801664834119 0 0.57412547362576272 0.58273804879550706 0 0.63065402604362242 0.59661356661633302 0 0.5991018319127801 0.62925360607495295 0 0.61343887413683884 0.856862479058357 0 0.5832743223239254 0.88483152652961872 0 0.55899371797446828 0.85003102233514438 0 0.50202631463681879 0.87892870825713787 0 0.55899371797446828 0.85003102233514438 0 0.54783390826260769 0.89287767010860219 0 0.51076801031701946 0.1202837388510348 0 0.54979595918804436 0.1060565713905809 0 0.56202748619534593 0.15054058349222879 0 0.55306006949600994 0.20198184231352201 0 0.59814117807200873 0.23398510860739519 0 0.54248833945060504 0.2520322959927106 0 0.83573492347052902 0.36590755630746369 0 0.82500000000000062 0.33010209762754811 0 0.87430060258887643 0.34056085888204451 0 0.83758014339878906 0.63222013025741819 0 0.87712158428786946 0.65709029563313581 0 0.82457059160610424 0.66831947184359608 0 0.49102375406324739 0.49123754822244059 0 0.53823865529665704 0.45873898050322898 0 0.53330375813596242 0.50827942741749099 0 0.52289427570932567 0.3932284363388488 0 0.57744073070774993 0.41535148636609359 0 0.53823865529665704 0.45873898050322898 0 0.4089290844030305 0.58728915500154233 0 0.37272913873093971 0.56192925302619479 0 0.42644501560315817 0.54603747078095544 0 0.49695729691142171 0.25014895411178018 0 0.4604742573284204 0.27846934318264788 0 0.46429753744194407 0.22870891180733599 0 0.90299850604011456 0.79563452813489832 0 0.85491058998424563 0.76004753345552634 0 0.89999166460796554 0.74528934923809909 0 0.90299850604006393 0.09563452813493091 0 0.85491058998398861 0.060047533455626502 0 0.899991664607802 0.045289349238254978 0 0.38244435121258652 0.51653317813019495 0 0.42644501560315817 0.54603747078095544 0 0.37272913873093971 0.56192925302619479 0 0.71406021706547751 0.63292083137662503 0 0.71809016091162536 0.58185040402320831 0 0.74994237037456724 0.62775548192980357 0 0.84723782639812573 0.48638347960178252 0 0.86907294890112186 0.52008116128001669 0 0.81441713509985358 0.51161854125224959 0 0.33122374654748771 0.57588941099433744 0 0.33190227185843768 0.52715113583864037 0 0.37272913873093971 0.56192925302619479 0 0.086179601630648681 0.64647209519980475 0 0.1241190223511371 0.64391885572885044 0 0.1020579365089687 0.69352219419301997 0 0.59999999999894682 0 0 0.64999999999907843 0 0 0.61940220174112337 0.047251958781050582 0 0.18269480424590959 0.75905448272264375 0 0.14335651144331049 0.75565258250209677 0 0.15332765547575641 0.71200081858233666 0 0.22549374774072969 0.58452645269293457 0 0.2459498854893499 0.63248470766216769 0 0.19914261668318661 0.62286739485272158 0 0.38244435121258652 0.51653317813019495 0 0.43507373378304309 0.49699695397193322 0 0.42644501560315817 0.54603747078095544 0 0.65000000000104008 1 0 0.60000000000138687 1 0 0.62065498684670595 0.95224934003983619 0 0.078358742472063481 0.43365249433908948 0 0.068743045408989428 0.48853989837882689 0 0.033550201249889847 0.46247875832467239 0 0.2236846579037573 0.67380363126050236 0 0.27820712747429932 0.65530134213254643 0 0.26439878998046262 0.7048065392091396 0 0.6879972333610942 0.43038561374960838 0 0.68128176404677243 0.38629093627004979 0 0.72622533758026719 0.40265885511101601 0 0.72525833953073282 0.1032114801687094 0 0.7010294155333181 0.056779085686491267 0 0.7527966693318906 0.053051678021508272 0 0.18269480424590959 0.75905448272264375 0 0.15332765547575641 0.71200081858233666 0 0.19068556247388771 0.71028988922845504 0 0.1216098864341134 0.50637075089503902 0 0.085622222639554768 0.53333248912060549 0 0.068743045408989428 0.48853989837882689 0 0.25676291524611189 0.7436741304886243 0 0.26439878998046262 0.7048065392091396 0 0.29904318922293632 0.74132814928635593 0 0.65481233915350323 0.35652751921065562 0 0.68128176404677243 0.38629093627004979 0 0.63912439215427275 0.41063340167983359 0 0.83573492347052902 0.36590755630746369 0 0.86844634540301924 0.38530937474099819 0 0.81308179852519835 0.39754945808726527 0 0.27270076654418179 0.87751467830216623 0 0.2401283238295133 0.85648409884788523 0 0.29209212897034281 0.84715728365233667 0 0.84999999999999987 0.69999999999999996 0 0.85491058998424563 0.76004753345552634 0 0.81864958914779962 0.73589050177899629 0 0.84999999999960507 0 0 0.85491058998398861 0.060047533455626502 0 0.81864958914740749 0.035890501779055867 0 0.18381867841758909 0.57774125163628387 0 0.19914261668318661 0.62286739485272158 0 0.15720202157091859 0.60665697304410315 0 0.22549374774072969 0.58452645269293457 0 0.19914261668318661 0.62286739485272158 0 0.18381867841758909 0.57774125163628387 0 0.79680861578988083 0.92656778056766709 0 0.85170973911348691 0.93569607295217616 0 0.81486180804382891 0.96321394949790495 0 0.79680861578956375 0.22656778056752541 0 0.8517097391133297 0.2356960729520409 0 0.81486180804364938 0.26321394949780091 0 0.20050006573841939 0.53248514016039872 0 0.23975172658309729 0.49475499200540818 0 0.25115337790845271 0.54719303014923271 0 0.28307294598219601 0.50789252727458634 0 0.25115337790845271 0.54719303014923271 0 0.23975172658309729 0.49475499200540818 0 0.20050006573841939 0.53248514016039872 0 0.18381867841758909 0.57774125163628387 0 0.14934928745814749 0.55042914607228977 0 0.19922788606653311 0.085920220746880993 0 0.22985637510995899 0.1298347970200906 0 0.18652628422869419 0.14162325200928061 0 0.33758650185219202 0.23837101504325639 0 0.38831533174504851 0.2189834941785925 0 0.3786248352540974 0.27082301512024259 0 0.42377727103934271 0.25099357235810238 0 0.3786248352540974 0.27082301512024259 0 0.38831533174504851 0.2189834941785925 0 0.19922788606653311 0.085920220746880993 0 0.18652628422869419 0.14162325200928061 0 0.16141998738593399 0.10404039647458049 0 0.54782696902220018 0.79245182748204157 0 0.55363780716230748 0.74348740161571747 0 0.59636844454254345 0.75937156204589151 0 0.82709327591091286 0.84937141670920724 0 0.88088768115933802 0.84674609810493673 0 0.85600844944837662 0.88483418979512773 0 0.82709327591102189 0.14937141670914489 0 0.88088768115941807 0.14674609810479519 0 0.85600844944842547 0.1848341897950983 0 0.27866744612395528 0.38416094670951489 0 0.22033343844674469 0.36963382230740238 0 0.25966125648670141 0.34351016742083729 0 0 0.50000000000205869 0 0.033550201249889847 0.46247875832467239 0 0.068743045408989428 0.48853989837882689 0 0.31378396441836959 0.70157213313026345 0 0.36622285152418499 0.69092437780804039 0 0.35415581127540569 0.73730480045900215 0 0.77293540622714185 0.59448302402785813 0 0.71809016091162536 0.58185040402320831 0 0.77151014687832564 0.54436834383023036 0 0.7152569930854884 0.5237994455134295 0 0.69385896817107129 0.48377516041410151 0 0.73947346780852752 0.49062440112282169 0 0.15801167086041079 0.46008690540259539 0 0.191953871957803 0.42546416763755879 0 0.19604738184454831 0.47787523520405789 0 0.57667858002728545 0.078486105337742612 0 0.61940220174112337 0.047251958781050582 0 0.61956000905586006 0.1043312481793135 0 0.65408113592120842 0.073941773121567966 0 0.61956000905586006 0.1043312481793135 0 0.61940220174112337 0.047251958781050582 0 0 0.55000000000173355 0 0 0.50000000000205869 0 0.044576108720083309 0.53509043209532614 0 0.65507451745379841 0.92229208810758578 0 0.62065498684670595 0.95224934003983619 0 0.61885627562261258 0.90282959257498208 0 0.57724883562309992 0.92155686857100794 0 0.61885627562261258 0.90282959257498208 0 0.62065498684670595 0.95224934003983619 0 0.91750694127107502 0.36982372220068471 0 0.86844634540301924 0.38530937474099819 0 0.87430060258887643 0.34056085888204451 0 0.91750694127105259 0.63017627779935648 0 0.87712158428786946 0.65709029563313581 0 0.87159648282691515 0.61285406320581504 0 0.33123028043633618 0.77629643437932982 0 0.29904318922293632 0.74132814928635593 0 0.35415581127540569 0.73730480045900215 0 0.86411095495256451 0.42388805655111889 0 0.84925632466077294 0.45359738909549091 0 0.81973119833356312 0.43505687159469048 0 0.43846182030517877 0.64845797726506715 0 0.47913475093885149 0.66010775372412711 0 0.43323420005758778 0.6913544522562407 0 0.18269480424590959 0.75905448272264375 0 0.19068556247388771 0.71028988922845504 0 0.2248999640082178 0.72584299459689172 0 0.39536230704883951 0.84069429572832477 0 0.38586766253264881 0.78219501014812498 0 0.42609163930740518 0.80361684430568059 0 0.59999999999999976 0.69999999999999996 0 0.63221990677827677 0.73442891067859706 0 0.59636844454254345 0.75937156204589151 0 0.27866744612395528 0.38416094670951489 0 0.24049127783545701 0.41270748208749802 0 0.22033343844674469 0.36963382230740238 0 0.82709327591091286 0.84937141670920724 0 0.84725310900444062 0.80779732082917555 0 0.88088768115933802 0.84674609810493673 0 0.82709327591102189 0.14937141670914489 0 0.84725310900442086 0.10779732082922661 0 0.88088768115941807 0.14674609810479519 0 0.1650278706801647 0.38791388161335733 0 0.18434624290945251 0.35208838264196463 0 0.22033343844674469 0.36963382230740238 0 0.4409427642593301 0.35743108089689513 0 0.49077833859261139 0.35229981449445641 0 0.46655310992796922 0.39650496622958609 0 0.80185942888539485 0.77452061303608133 0 0.81864958914779962 0.73589050177899629 0 0.85491058998424563 0.76004753345552634 0 0.80185942888501827 0.074520613036224564 0 0.81864958914740749 0.035890501779055867 0 0.85491058998398861 0.060047533455626502 0 0.29999999999926641 0 0 0.34999999999912063 0 0 0.32541448401678508 0.046215317981507749 0 0.35000000000145642 1 0 0.30000000000124832 1 0 0.32544832635163229 0.95485394099568932 0 0.4656888918609538 0.78493261229743638 0 0.50731287292894423 0.78963574450233831 0 0.50627822638148745 0.8263979829520941 0 0.2185883431182947 0.18019736283949719 0 0.25557216766470708 0.15874861286892261 0 0.26429849586623999 0.19346700179430079 0 1 0.29999999999999999 0 1 0.34999999999993492 0 0.95780851984364423 0.34215720972155339 0 1 0.29999999999999999 0 0.95780851984364423 0.34215720972155339 0 0.94999999999999996 0.29999999999999999 0 1 0.69999999999999996 0 0.94999999999999996 0.69999999999999996 0 0.9578014258160763 0.65787212321113708 0 1 0.69999999999999996 0 0.9578014258160763 0.65787212321113708 0 1 0.64999999999986979 0 0.91750694127107502 0.36982372220068471 0 0.90594285160987287 0.4141265964174129 0 0.86844634540301924 0.38530937474099819 0 0.91750694127105259 0.63017627779935648 0 0.87159648282691515 0.61285406320581504 0 0.91143117093204207 0.58709913730335972 0 0.74999999999999989 0.69999999999999996 0 0.7750489929959945 0.66593931409600093 0 0.79999999999999982 0.69999999999999996 0 0.74999999999999989 0.29999999999999999 0 0.79999999999999982 0.29999999999999999 0 0.78145581580700685 0.34881365920033602 0 0.54999999999999993 0.69999999999999996 0 0.57484956128872922 0.66573805030881994 0 0.59999999999999976 0.69999999999999996 0 0.90299850604011456 0.79563452813489832 0 0.94399509803918602 0.75600490196082126 0 0.95386563387742829 0.80414874155775029 0 0.90416666666660628 0.9041666666666166 0 0.95391631417670719 0.89584263333814784 0 0.94399509803919068 0.9439950980391687 0 0.90299850604006393 0.09563452813493091 0 0.94399509803922566 0.056004901960802607 0 0.95386563387744361 0.1041487415577465 0 0.90416666666668166 0.20416666666667119 0 0.95391631417672862 0.19584263333809451 0 0.94399509803921056 0.24399509803922639 0 0.22278230690790279 0.44824268025881547 0 0.19604738184454831 0.47787523520405789 0 0.191953871957803 0.42546416763755879 0 0.90299850604011456 0.79563452813489832 0 0.89999166460796554 0.74528934923809909 0 0.94399509803918602 0.75600490196082126 0 0.90299850604006393 0.09563452813493091 0 0.899991664607802 0.045289349238254978 0 0.94399509803922566 0.056004901960802607 0 0.49102375406324739 0.49123754822244059 0 0.47793794143994173 0.52940715638744962 0 0.43507373378304309 0.49699695397193322 0 0.90416666666660628 0.9041666666666166 0 0.94399509803919068 0.9439950980391687 0 0.89898474358632463 0.95391965591118966 0 0.90416666666668166 0.20416666666667119 0 0.94399509803921056 0.24399509803922639 0 0.89898474358614167 0.25391965591104898 0 0.65394964615507722 0.22666784374016369 0 0.62657463266645097 0.26524202571255862 0 0.59814117807200873 0.23398510860739519 0 0.6084546825910605 0.37989672713932537 0 0.63912439215427275 0.41063340167983359 0 0.57744073070774993 0.41535148636609359 0 0.61209567303293111 0.44669033081290321 0 0.57744073070774993 0.41535148636609359 0 0.63912439215427275 0.41063340167983359 0 0.25676291524611189 0.7436741304886243 0 0.22556077506376701 0.77837424984191617 0 0.2248999640082178 0.72584299459689172 0 0.61343887413683884 0.856862479058357 0 0.60294066490120068 0.80851322453934582 0 0.65005442820240822 0.82644988530054031 0 0.64999999999907843 0 0 0.66369801598854572 0.036327466368102787 0 0.61940220174112337 0.047251958781050582 0 0.40326160981139969 0.73346192995102844 0 0.38586766253264881 0.78219501014812498 0 0.35415581127540569 0.73730480045900215 0 0.33123028043633618 0.77629643437932982 0 0.35415581127540569 0.73730480045900215 0 0.38586766253264881 0.78219501014812498 0 0.26573297623774761 0.59828298563722948 0 0.29110487519241501 0.56588143995431495 0 0.31502927232353312 0.6134992213375432 0 0.77846603114747959 0.49850927265137401 0 0.81441713509985358 0.51161854125224959 0 0.77151014687832564 0.54436834383023036 0 0.82862096804812391 0.55037090955459045 0 0.77151014687832564 0.54436834383023036 0 0.81441713509985358 0.51161854125224959 0 0.50000000000205869 1 0 0.45000000000187229 1 0 0.47135117303824892 0.95556877749289892 0 0.44999999999882923 0 0 0.49999999999869432 0 0 0.47040171442036788 0.044141676406503738 0 0 0.7000000000006934 0 0 0.65000000000104008 0 0.046634677244967337 0.671418230738282 0 0 0.35000000000145642 0 0 0.30000000000124832 0 0.046389130980076937 0.32668781832131749 0 0.31378396441836959 0.70157213313026345 0 0.27820712747429932 0.65530134213254643 0 0.32263089806001177 0.66003674931826484 0 0.33122374654748771 0.57588941099433744 0 0.31502927232353312 0.6134992213375432 0 0.29110487519241501 0.56588143995431495 0 0.26573297623774761 0.59828298563722948 0 0.27820712747429932 0.65530134213254643 0 0.2459498854893499 0.63248470766216769 0 0.14474682429600511 0.85524784522713515 0 0.16206583317966519 0.89685560785156404 0 0.1241151115713819 0.9045666525468371 0 0.14332333627550789 0.14578431753966009 0 0.12372429750337779 0.095814237875728972 0 0.16141998738593399 0.10404039647458049 0 0.64753070846764316 0.77332939069435502 0 0.59636844454254345 0.75937156204589151 0 0.63221990677827677 0.73442891067859706 0 0.14474682429600511 0.85524784522713515 0 0.1241151115713819 0.9045666525468371 0 0.10562472963403439 0.87143394428979881 0 0.14332333627550789 0.14578431753966009 0 0.1053400320299198 0.12877248826361379 0 0.12372429750337779 0.095814237875728972 0 0.77354604466818633 0.40378688774472771 0 0.81308179852519835 0.39754945808726527 0 0.81973119833356312 0.43505687159469048 0 0.54782696902220018 0.79245182748204157 0 0.50945740445113552 0.75476055527778108 0 0.55363780716230748 0.74348740161571747 0 0.2236846579037573 0.67380363126050236 0 0.2459498854893499 0.63248470766216769 0 0.27820712747429932 0.65530134213254643 0 0.77293540622714185 0.59448302402785813 0 0.74994237037456724 0.62775548192980357 0 0.71809016091162536 0.58185040402320831 0 0 0.79999999999999982 0 0 0.75000000000034661 0 0.04408157711937423 0.7728941757575627 0 0 0.25000000000104028 0 0 0.20000000000083221 0 0.044081577119474857 0.2271058242433576 0 0.19999999999955789 0 0 0.24999999999941211 0 0 0.22668068146512929 0.045875643423131329 0 0.25000000000104028 1 0 0.20000000000083221 1 0 0.22850979588452081 0.95594428570238643 0 0.47357141910802508 0.1873585799078378 0 0.44288491854585582 0.14116182884956319 0 0.48466639505193998 0.1421439844745814 0 0.59999999999999976 0.29999999999999999 0 0.5794309697024993 0.27124795968204829 0 0.62657463266645097 0.26524202571255862 0 0.43249999999999988 0.43937499999999979 0 0.42161023666869668 0.39493916313643851 0 0.46655310992796922 0.39650496622958609 0 0.31068898841644388 0.47541502461811092 0 0.33190227185843768 0.52715113583864037 0 0.28307294598219601 0.50789252727458634 0 0.35024835142131061 0.48654922671676981 0 0.33190227185843768 0.52715113583864037 0 0.31068898841644388 0.47541502461811092 0 0.35864735590330371 0.63903383440414463 0 0.36622285152418499 0.69092437780804039 0 0.32263089806001177 0.66003674931826484 0 0.31378396441836959 0.70157213313026345 0 0.32263089806001177 0.66003674931826484 0 0.36622285152418499 0.69092437780804039 0 0.86956835336234861 0.571283299838105 0 0.90900154012161016 0.53607784105648792 0 0.91143117093204207 0.58709913730335972 0 0.6499999999999998 0.29999999999999999 0 0.65481233915350323 0.35652751921065562 0 0.61959173890754571 0.33832250091341232 0 0.4409427642593301 0.35743108089689513 0 0.46226845272279993 0.31901800744800313 0 0.49077833859261139 0.35229981449445641 0 0.5 0.29999999999999999 0 0.49077833859261139 0.35229981449445641 0 0.46226845272279993 0.31901800744800313 0 0.14999999999970359 0 0 0.19999999999955789 0 0 0.184418230509967 0.038773194583122873 0 0.20000000000083221 1 0 0.15000000000062411 1 0 0.18474005699953849 0.96231585248064622 0 1 0.49999999999950101 0 1 0.54999999999963112 0 0.95631871884947484 0.51827533208233789 0 0.38586766253264881 0.78219501014812498 0 0.42676259796334498 0.76772545931379299 0 0.42609163930740518 0.80361684430568059 0 0.20050006573841939 0.53248514016039872 0 0.22549374774072969 0.58452645269293457 0 0.18381867841758909 0.57774125163628387 0 0.065374659239661639 0.8551091961254178 0 0.1074251789111534 0.83564394292147814 0 0.10562472963403439 0.87143394428979881 0 0.065374659239632718 0.1448908038746782 0 0.1053400320299198 0.12877248826361379 0 0.106902708054812 0.16453234188234539 0 0.1650278706801647 0.38791388161335733 0 0.14223753364722069 0.3341983344262433 0 0.18434624290945251 0.35208838264196463 0 0.43249999999999988 0.43937499999999979 0 0.46111841286828259 0.46690301029591341 0 0.43507373378304309 0.49699695397193322 0 0.83758014339878906 0.63222013025741819 0 0.81723410853263523 0.59419663659258926 0 0.87159648282691515 0.61285406320581504 0 0.19670163708476801 0.31472518408333222 0 0.18434624290945251 0.35208838264196463 0 0.14223753364722069 0.3341983344262433 0 0.75000000000034661 1 0 0.7250000000005199 0.94981617647078953 0 0.770759834363826 0.95919399014344442 0 0.74999999999999989 0.29999999999999999 0 0.72500000000000064 0.2498161764706 0 0.77075983436335049 0.25919399014334171 0 0.69999999999999984 0.29999999999999999 0 0.67933712972090698 0.25920070958121938 0 0.72500000000000064 0.2498161764706 0 0.57611405284611883 0.50165903596042916 0 0.53330375813596242 0.50827942741749099 0 0.53823865529665704 0.45873898050322898 0 0.6499999999999998 0.29999999999999999 0 0.68887083591306764 0.33632058575757479 0 0.65481233915350323 0.35652751921065562 0 0.27866744612395528 0.38416094670951489 0 0.33277555741076909 0.36432196682010132 0 0.31778888742534622 0.40581751814196781 0 0.49102375406324739 0.49123754822244059 0 0.43507373378304309 0.49699695397193322 0 0.46111841286828259 0.46690301029591341 0 0.94999999999999996 0.69999999999999996 0 0.97166519676947294 0.73337114490064459 0 0.94399509803918602 0.75600490196082126 0 0.94999999999986839 0 0 0.97166519676946894 0.033371144900598393 0 0.94399509803922566 0.056004901960802607 0 0.94999999999999996 0.29999999999999999 0 0.94399509803921056 0.24399509803922639 0 0.97166519676951801 0.26662885509932011 0 0.94999999999979179 1 0 0.94399509803919068 0.9439950980391687 0 0.97166519676946206 0.96662885509935492 0 0.34258405725730701 0.4444034294386992 0 0.29124338931648802 0.43334555462578611 0 0.31778888742534622 0.40581751814196781 0 0.27866744612395528 0.38416094670951489 0 0.31778888742534622 0.40581751814196781 0 0.29124338931648802 0.43334555462578611 0 0.36575549820117997 0.31677992835137742 0 0.33277555741076909 0.36432196682010132 0 0.32752639306529541 0.32610012995269699 0 0.35752321586431363 0.9185439911803448 0 0.32544832635163229 0.95485394099568932 0 0.30864387279288652 0.89906554525974958 0 0.27609987656793722 0.94991445621608572 0 0.30864387279288652 0.89906554525974958 0 0.32544832635163229 0.95485394099568932 0 0.33123028043633618 0.77629643437932982 0 0.30857225866488791 0.81101973481716805 0 0.2792923945214143 0.77665808831789485 0 0.33758650185219202 0.23837101504325639 0 0.29132859388405002 0.27203693976649962 0 0.28040350263641872 0.23054717217092141 0 0.4409427642593301 0.35743108089689513 0 0.41914690343363781 0.30688979866601612 0 0.46226845272279993 0.31901800744800313 0 0.14332333627550789 0.14578431753966009 0 0.13737030665753211 0.20313708640667491 0 0.106902708054812 0.16453234188234539 0 0.083105206071467416 0.20007701332709979 0 0.106902708054812 0.16453234188234539 0 0.13737030665753211 0.20313708640667491 0 0.083105206071452636 0.79992298667296435 0 0.1382744753146134 0.79650574229207483 0 0.1074251789111534 0.83564394292147814 0 0.14474682429600511 0.85524784522713515 0 0.1074251789111534 0.83564394292147814 0 0.1382744753146134 0.79650574229207483 0 0.65408113592120842 0.073941773121567966 0 0.7010294155333181 0.056779085686491267 0 0.68330259535470161 0.10038702501083881 0 0.72525833953073282 0.1032114801687094 0 0.68330259535470161 0.10038702501083881 0 0.7010294155333181 0.056779085686491267 0 0.049706944316475897 0.72477277076253799 0 0.046634677244967337 0.671418230738282 0 0.1020579365089687 0.69352219419301997 0 0.086179601630648681 0.64647209519980475 0 0.1020579365089687 0.69352219419301997 0 0.046634677244967337 0.671418230738282 0 0.087545339447545459 0.35122518864182262 0 0.046389130980076937 0.32668781832131749 0 0.093851963071650835 0.30582068233324772 0 0.049706944316556423 0.27522722923869108 0 0.093851963071650835 0.30582068233324772 0 0.046389130980076937 0.32668781832131749 0 0.82709327591091286 0.84937141670920724 0 0.80041942726660109 0.81543261647703358 0 0.84725310900444062 0.80779732082917555 0 0.82709327591102189 0.14937141670914489 0 0.80076557130237269 0.1154587552654202 0 0.84725310900442086 0.10779732082922661 0 0.17933913398461551 0.2350063570234002 0 0.14377654328998779 0.2442024734791064 0 0.13737030665753211 0.20313708640667491 0 0.18269480424590959 0.75905448272264375 0 0.1382744753146134 0.79650574229207483 0 0.14335651144331049 0.75565258250209677 0 0.33758650185219202 0.23837101504325639 0 0.3786248352540974 0.27082301512024259 0 0.33402499257867951 0.28911035184473982 0 0.14332333627550789 0.14578431753966009 0 0.18124454140915969 0.18790916706335251 0 0.13737030665753211 0.20313708640667491 0 0.14474682429600511 0.85524784522713515 0 0.1382744753146134 0.79650574229207483 0 0.17777405986036951 0.81832336108265358 0 0.5 0.29999999999999999 0 0.52752007115234678 0.33170632466418198 0 0.49077833859261139 0.35229981449445641 0 0.27866744612395528 0.38416094670951489 0 0.29644548887253103 0.34914008784168082 0 0.33277555741076909 0.36432196682010132 0 0 0.84999999999965292 0 0 0.79999999999999982 0 0.038512288486097702 0.8155852717111195 0 0 0.20000000000083221 0 0 0.15000000000062411 0 0.038512288486115001 0.1844147282893184 0 0.40326160981139969 0.73346192995102844 0 0.35415581127540569 0.73730480045900215 0 0.36622285152418499 0.69092437780804039 0 0.91696753777131557 0.497780560203536 0 0.96228564064454991 0.48206450662049471 0 0.95631871884947484 0.51827533208233789 0 0.33758650185219202 0.23837101504325639 0 0.31255190597181792 0.19850845631528771 0 0.3572130504031617 0.1874703368446563 0 0.59814117807200873 0.23398510860739519 0 0.62657463266645097 0.26524202571255862 0 0.5794309697024993 0.27124795968204829 0 0.34258405725730701 0.4444034294386992 0 0.31068898841644388 0.47541502461811092 0 0.29124338931648802 0.43334555462578611 0 0.38083244760691543 0.38531983672244652 0 0.35221190152536241 0.40457127605439203 0 0.33277555741076909 0.36432196682010132 0 0.083411279318375747 0.91030024466934134 0 0.10266856499240549 0.95548163909968886 0 0.053064897599294662 0.95186845269532028 0 0.083411279318303222 0.089699755330707398 0 0.053064897599215843 0.048131547304697528 0 0.10266856499169109 0.044518360900210059 0 0.42377727103934271 0.25099357235810238 0 0.4604742573284204 0.27846934318264788 0 0.41914690343363781 0.30688979866601612 0 0.28307294598219601 0.50789252727458634 0 0.25982634974572738 0.46097799597715272 0 0.31068898841644388 0.47541502461811092 0 0.29348325746214782 0.31350119524708198 0 0.29132859388405002 0.27203693976649962 0 0.33402499257867951 0.28911035184473982 0 0.35312867752657662 0.084946736076730367 0 0.39823268594401579 0.1116623613130045 0 0.36246644853392812 0.1399454205365751 0 0.7000000000006934 1 0 0.68015064798562208 0.95924320340003011 0 0.7250000000005199 0.94981617647078953 0 0.42377727103934271 0.25099357235810238 0 0.38831533174504851 0.2189834941785925 0 0.42905200079338551 0.19982395548231649 0 0.53823865529665704 0.45873898050322898 0 0.57744073070774993 0.41535148636609359 0 0.57975577671020095 0.46172033326338591 0 0.33758650185219202 0.23837101504325639 0 0.3572130504031617 0.1874703368446563 0 0.38831533174504851 0.2189834941785925 0 0.29124338931648802 0.43334555462578611 0 0.31068898841644388 0.47541502461811092 0 0.25982634974572738 0.46097799597715272 0 0.6084546825910605 0.37989672713932537 0 0.61959173890754571 0.33832250091341232 0 0.65481233915350323 0.35652751921065562 0 0.40326160981139969 0.73346192995102844 0 0.43323420005758778 0.6913544522562407 0 0.45582236402875981 0.73896743678908217 0 0.33758650185219202 0.23837101504325639 0 0.28040350263641872 0.23054717217092141 0 0.31255190597181792 0.19850845631528771 0 0.79999999999999982 1 0 0.75000000000034661 1 0 0.770759834363826 0.95919399014344442 0 0.74999999999999989 0.29999999999999999 0 0.77075983436335049 0.25919399014334171 0 0.79999999999999982 0.29999999999999999 0 0.6499999999999998 0.29999999999999999 0 0.67933712972090698 0.25920070958121938 0 0.69999999999999984 0.29999999999999999 0 0.39536230704883951 0.84069429572832477 0 0.39767323751400468 0.89584229130535065 0 0.35864759629805099 0.87963482415279515 0 0.54999999999999993 0.69999999999999996 0 0.52584555706968406 0.66664215091846768 0 0.57484956128872922 0.66573805030881994 0 0.35312867752657662 0.084946736076730367 0 0.32541448401678508 0.046215317981507749 0 0.3615861437013822 0.03582617922508851 0 0.35752321586431363 0.9185439911803448 0 0.36184234618600131 0.96443954459096326 0 0.32544832635163229 0.95485394099568932 0 0.35312867752657662 0.084946736076730367 0 0.3615861437013822 0.03582617922508851 0 0.39591832466117061 0.056982757562006353 0 0.35752321586431363 0.9185439911803448 0 0.39641108128798319 0.94356127926187128 0 0.36184234618600131 0.96443954459096326 0 0.083411279318303222 0.089699755330707398 0 0.044310582753132287 0.101412518374475 0 0.053064897599215843 0.048131547304697528 0 0.083411279318375747 0.91030024466934134 0 0.053064897599294662 0.95186845269532028 0 0.0443105827531413 0.89858748162559932 0 0.38083244760691543 0.38531983672244652 0 0.40076539126862748 0.34589349467022118 0 0.42161023666869668 0.39493916313643851 0 0.4409427642593301 0.35743108089689513 0 0.42161023666869668 0.39493916313643851 0 0.40076539126862748 0.34589349467022118 0 0.79999999999999982 0.29999999999999999 0 0.82500000000000062 0.33010209762754811 0 0.78145581580700685 0.34881365920033602 0 0.79999999999999982 0.69999999999999996 0 0.7750489929959945 0.66593931409600093 0 0.82457059160610424 0.66831947184359608 0 0.59999999999999976 0.69999999999999996 0 0.57484956128872922 0.66573805030881994 0 0.62460753523532009 0.66851202781000296 0 0.74999999999999989 0.69999999999999996 0 0.72500000000000064 0.67022701834392062 0 0.7750489929959945 0.66593931409600093 0 0.74999999999999989 0.29999999999999999 0 0.78145581580700685 0.34881365920033602 0 0.73090396928863699 0.33699297293167962 0 0.33758650185219202 0.23837101504325639 0 0.33402499257867951 0.28911035184473982 0 0.29132859388405002 0.27203693976649962 0 0.36575549820117997 0.31677992835137742 0 0.41914690343363781 0.30688979866601612 0 0.40076539126862748 0.34589349467022118 0 0.4409427642593301 0.35743108089689513 0 0.40076539126862748 0.34589349467022118 0 0.41914690343363781 0.30688979866601612 0 0.34258405725730701 0.4444034294386992 0 0.38707855792647411 0.42299362914874578 0 0.3908716102680424 0.47010282357248828 0 0.7000000000006934 1 0 0.65000000000104008 1 0 0.68015064798562208 0.95924320340003011 0 0.49102375406324739 0.49123754822244059 0 0.46111841286828259 0.46690301029591341 0 0.48858720058566618 0.43964267759203868 0 0.4656888918609538 0.78493261229743638 0 0.42676259796334498 0.76772545931379299 0 0.45582236402875981 0.73896743678908217 0 0.40326160981139969 0.73346192995102844 0 0.45582236402875981 0.73896743678908217 0 0.42676259796334498 0.76772545931379299 0 0.59999999999999976 0.29999999999999999 0 0.62657463266645097 0.26524202571255862 0 0.6499999999999998 0.29999999999999999 0 0.40000000000166441 1 0 0.36184234618600131 0.96443954459096326 0 0.39641108128798319 0.94356127926187128 0 0.3999999999989749 0 0 0.39591832466117061 0.056982757562006353 0 0.3615861437013822 0.03582617922508851 0 0.43249999999999988 0.43937499999999979 0 0.48858720058566618 0.43964267759203868 0 0.46111841286828259 0.46690301029591341 0 0.7250000000005199 0.89375000000045834 0 0.7250000000005199 0.94981617647078953 0 0.68987011941058407 0.92105047536677087 0 0.7250000000005199 0.89375000000045834 0 0.75729602384198635 0.92353652857884294 0 0.7250000000005199 0.94981617647078953 0 0.72500000000001008 0.19776155966387679 0 0.75668890529066124 0.2244279804069782 0 0.72500000000000064 0.2498161764706 0 0.72500000000001008 0.19776155966387679 0 0.72500000000000064 0.2498161764706 0 0.69397719155551807 0.2245125647000914 0 0.79999999999999982 0.29999999999999999 0 0.81486180804364938 0.26321394949780091 0 0.84999999999999987 0.29999999999999999 0 0.84999999999965292 1 0 0.79999999999999982 1 0 0.81486180804382891 0.96321394949790495 0 0.1247745017231483 0.27198077544791172 0 0.095326043202144745 0.24554465089224409 0 0.14377654328998779 0.2442024734791064 0 0.1215415378367805 0.72939333680004137 0 0.14335651144331049 0.75565258250209677 0 0.090953281884486245 0.7564451946902494 0 0.72500000000001008 0.19776155966387679 0 0.72634814642510737 0.16106886917518889 0 0.76587607630038135 0.18880039518954719 0 0.72500000000001008 0.19776155966387679 0 0.6865991819015953 0.189116534044597 0 0.72634814642510737 0.16106886917518889 0 0.77144070960558853 0.14311854477243749 0 0.76587607630038135 0.18880039518954719 0 0.72634814642510737 0.16106886917518889 0 0.68391457121233579 0.14440470121196541 0 0.72634814642510737 0.16106886917518889 0 0.6865991819015953 0.189116534044597 0 0.7250000000005199 0.89375000000045834 0 0.72863726579783861 0.85390518901155588 0 0.76891166905518427 0.88835469571185499 0 0.76901770135486491 0.84293557325473656 0 0.76891166905518427 0.88835469571185499 0 0.72863726579783861 0.85390518901155588 0 0 0.20000000000083221 0 0.038512288486115001 0.1844147282893184 0 0.044081577119474857 0.2271058242433576 0 0 0.79999999999999982 0 0.04408157711937423 0.7728941757575627 0 0.038512288486097702 0.8155852717111195 0 0.52375890611712683 0.059318771819432882 0 0.47881186583059909 0.093591717165689425 0 0.47040171442036788 0.044141676406503738 0 0.52122150208832174 0.94089974453840242 0 0.47135117303824892 0.95556877749289892 0 0.47401147028110507 0.91529957330468115 0 0.27474541102162192 0.11822029332053539 0 0.3096713403101819 0.085471541595262421 0 0.32215584939770009 0.1218492143506909 0 0.22278230690790279 0.44824268025881547 0 0.24049127783545701 0.41270748208749802 0 0.25982634974572738 0.46097799597715272 0 0.93732437411268477 0.55911392101136159 0 0.91143117093204207 0.58709913730335972 0 0.90900154012161016 0.53607784105648792 0 0.19901705110390991 0.9175543425573498 0 0.24536017905392571 0.90704567837671446 0 0.22850979588452081 0.95594428570238643 0 0.27609987656793722 0.94991445621608572 0 0.22850979588452081 0.95594428570238643 0 0.24536017905392571 0.90704567837671446 0 0.15720202157091859 0.60665697304410315 0 0.1241190223511371 0.64391885572885044 0 0.1024350934457823 0.60772393977513839 0 0.6499999999999998 0.69999999999999996 0 0.675261390228442 0.65996937624687813 0 0.69999999999999984 0.69999999999999996 0 0.3999999999989749 0 0 0.4320097814748517 0.037406712692169303 0 0.39591832466117061 0.056982757562006353 0 0.40000000000166441 1 0 0.39641108128798319 0.94356127926187128 0 0.4308986359464303 0.96395712492906194 0 0.54999999999999993 0.29999999999999999 0 0.56836770495988642 0.3523062350852913 0 0.52752007115234678 0.33170632466418198 0 0.14474682429600511 0.85524784522713515 0 0.17777405986036951 0.81832336108265358 0 0.19741632902693801 0.86755867406447229 0 0.21858834311891909 0.81980263716112767 0 0.19741632902693801 0.86755867406447229 0 0.17777405986036951 0.81832336108265358 0 0.54782696902220018 0.79245182748204157 0 0.50731287292894423 0.78963574450233831 0 0.50945740445113552 0.75476055527778108 0 0.20000000000083221 1 0 0.18474005699953849 0.96231585248064622 0 0.22850979588452081 0.95594428570238643 0 0.19999999999955789 0 0 0.22668068146512929 0.045875643423131329 0 0.184418230509967 0.038773194583122873 0 0.77846603114747959 0.49850927265137401 0 0.73947346780852752 0.49062440112282169 0 0.77972660463949339 0.45529290596363098 0 0.73483647259922602 0.44789725365921768 0 0.77972660463949339 0.45529290596363098 0 0.73947346780852752 0.49062440112282169 0 0.34258405725730701 0.4444034294386992 0 0.35024835142131061 0.48654922671676981 0 0.31068898841644388 0.47541502461811092 0 0.33123028043633618 0.77629643437932982 0 0.2792923945214143 0.77665808831789485 0 0.29904318922293632 0.74132814928635593 0 0.26573297623774761 0.59828298563722948 0 0.25115337790845271 0.54719303014923271 0 0.29110487519241501 0.56588143995431495 0 0.4656888918609538 0.78493261229743638 0 0.50945740445113552 0.75476055527778108 0 0.50731287292894423 0.78963574450233831 0 0.35312867752657662 0.084946736076730367 0 0.36246644853392812 0.1399454205365751 0 0.32215584939770009 0.1218492143506909 0 0.29348325746214782 0.31350119524708198 0 0.25966125648670141 0.34351016742083729 0 0.24432083401701241 0.3006253385567515 0 0.59999999999999976 0.69999999999999996 0 0.6499999999999998 0.69999999999999996 0 0.63221990677827677 0.73442891067859706 0 0.69999999999921003 0 0 0.7010294155333181 0.056779085686491267 0 0.66369801598854572 0.036327466368102787 0 0.40000000000166441 1 0 0.35000000000145642 1 0 0.36184234618600131 0.96443954459096326 0 0.34999999999912063 0 0 0.3999999999989749 0 0 0.3615861437013822 0.03582617922508851 0 0.43507373378304309 0.49699695397193322 0 0.47793794143994173 0.52940715638744962 0 0.42644501560315817 0.54603747078095544 0 0.14474682429600511 0.85524784522713515 0 0.19741632902693801 0.86755867406447229 0 0.16206583317966519 0.89685560785156404 0 0.19901705110390991 0.9175543425573498 0 0.16206583317966519 0.89685560785156404 0 0.19741632902693801 0.86755867406447229 0 0.35864735590330371 0.63903383440414463 0 0.3977710372045391 0.65868194622830212 0 0.36622285152418499 0.69092437780804039 0 0.7527966693318906 0.053051678021508272 0 0.7010294155333181 0.056779085686491267 0 0.72683645290270404 0.027797073151180601 0 0.71508799138962864 0.36622814920737751 0 0.72622533758026719 0.40265885511101601 0 0.68128176404677243 0.38629093627004979 0 0.79999999999999982 0.69999999999999996 0 0.84999999999999987 0.69999999999999996 0 0.81864958914779962 0.73589050177899629 0 0.79999999999947335 0 0 0.84999999999960507 0 0 0.81864958914740749 0.035890501779055867 0 0.39536230704883951 0.84069429572832477 0 0.35642984951668422 0.80994399665655703 0 0.38586766253264881 0.78219501014812498 0 0.42377727103934271 0.25099357235810238 0 0.46429753744194407 0.22870891180733599 0 0.4604742573284204 0.27846934318264788 0 0.39801143831225599 0.16651381068160659 0 0.42905200079338551 0.19982395548231649 0 0.38831533174504851 0.2189834941785925 0 0.79999999999999982 1 0 0.770759834363826 0.95919399014344442 0 0.81486180804382891 0.96321394949790495 0 0.79999999999999982 0.29999999999999999 0 0.77075983436335049 0.25919399014334171 0 0.81486180804364938 0.26321394949780091 0 0.25195515620380449 0.25883339815888678 0 0.21049769590865089 0.26857363548218488 0 0.224700362040408 0.22206622194729711 0 0.40326160981139969 0.73346192995102844 0 0.42676259796334498 0.76772545931379299 0 0.38586766253264881 0.78219501014812498 0 0.35312867752657662 0.084946736076730367 0 0.3096713403101819 0.085471541595262421 0 0.32541448401678508 0.046215317981507749 0 0.59999999999999976 0.29999999999999999 0 0.6499999999999998 0.29999999999999999 0 0.61959173890754571 0.33832250091341232 0 0.2185883431182947 0.18019736283949719 0 0.18652628422869419 0.14162325200928061 0 0.22985637510995899 0.1298347970200906 0 0.64999999999907843 0 0 0.69999999999921003 0 0 0.66369801598854572 0.036327466368102787 0 0.27499999999933927 0.060310814194988557 0 0.24218496799700481 0.089025544070598317 0 0.22668068146512929 0.045875643423131329 0 0.19922788606653311 0.085920220746880993 0 0.22668068146512929 0.045875643423131329 0 0.24218496799700481 0.089025544070598317 0 0.65507451745379841 0.92229208810758578 0 0.66412543161245952 0.88015090885499059 0 0.68987011941058407 0.92105047536677087 0 0.049706944316475897 0.72477277076253799 0 0.090953281884486245 0.7564451946902494 0 0.04408157711937423 0.7728941757575627 0 0.083105206071452636 0.79992298667296435 0 0.04408157711937423 0.7728941757575627 0 0.090953281884486245 0.7564451946902494 0 0.083105206071467416 0.20007701332709979 0 0.095326043202144745 0.24554465089224409 0 0.044081577119474857 0.2271058242433576 0 0.049706944316556423 0.27522722923869108 0 0.044081577119474857 0.2271058242433576 0 0.095326043202144745 0.24554465089224409 0 0.36575549820117997 0.31677992835137742 0 0.33402499257867951 0.28911035184473982 0 0.3786248352540974 0.27082301512024259 0 0.53245488764484505 0.55078124999999989 0 0.53330375813596242 0.50827942741749099 0 0.57435499076887508 0.54267261987897775 0 0.57611405284611883 0.50165903596042916 0 0.57435499076887508 0.54267261987897775 0 0.53330375813596242 0.50827942741749099 0 0.6499999999999998 0.29999999999999999 0 0.69999999999999984 0.29999999999999999 0 0.68887083591306764 0.33632058575757479 0 0.57611405284611883 0.50165903596042916 0 0.53823865529665704 0.45873898050322898 0 0.57975577671020095 0.46172033326338591 0 0.7750489929959945 0.66593931409600093 0 0.72500000000000064 0.67022701834392062 0 0.74994237037456724 0.62775548192980357 0 0.78145581580700685 0.34881365920033602 0 0.74764719760526988 0.3719647154012321 0 0.73090396928863699 0.33699297293167962 0 0.3999999999989749 0 0 0.44999999999882923 0 0 0.4320097814748517 0.037406712692169303 0 0.45000000000187229 1 0 0.40000000000166441 1 0 0.4308986359464303 0.96395712492906194 0 0.57484956128872922 0.66573805030881994 0 0.5991018319127801 0.62925360607495295 0 0.62460753523532009 0.66851202781000296 0 0.7750489929959945 0.66593931409600093 0 0.79884539758237771 0.62875045078114233 0 0.82457059160610424 0.66831947184359608 0 0.39801143831225599 0.16651381068160659 0 0.36246644853392812 0.1399454205365751 0 0.39823268594401579 0.1116623613130045 0 0.078358742472063481 0.43365249433908948 0 0.033550201249889847 0.46247875832467239 0 0.035463093262830522 0.42673416072819947 0 0.25676291524611189 0.7436741304886243 0 0.2792923945214143 0.77665808831789485 0 0.22556077506376701 0.77837424984191617 0 0.2236846579037573 0.67380363126050236 0 0.2248999640082178 0.72584299459689172 0 0.19068556247388771 0.71028988922845504 0 0.50715858906372158 0.63295939104129484 0 0.5166924242153631 0.59825134841919447 0 0.5498280205245758 0.6290146943450976 0 0.14618258501891079 0.062070108745602003 0 0.12372429750337779 0.095814237875728972 0 0.10266856499169109 0.044518360900210059 0 0.083411279318303222 0.089699755330707398 0 0.10266856499169109 0.044518360900210059 0 0.12372429750337779 0.095814237875728972 0 0.083411279318375747 0.91030024466934134 0 0.1241151115713819 0.9045666525468371 0 0.10266856499240549 0.95548163909968886 0 0.14617343800780541 0.93808063414349496 0 0.10266856499240549 0.95548163909968886 0 0.1241151115713819 0.9045666525468371 0 0.5499999999988151 0 0 0.59999999999894682 0 0 0.57396793757665954 0.037011367187645222 0 0.54782696902220018 0.79245182748204157 0 0.50627822638148745 0.8263979829520941 0 0.50731287292894423 0.78963574450233831 0 0.6499999999999998 0.29999999999999999 0 0.62657463266645097 0.26524202571255862 0 0.67933712972090698 0.25920070958121938 0 0.86956835336234861 0.571283299838105 0 0.86907294890112186 0.52008116128001669 0 0.90900154012161016 0.53607784105648792 0 0.17933913398461551 0.2350063570234002 0 0.224700362040408 0.22206622194729711 0 0.21049769590865089 0.26857363548218488 0 0.43249999999999988 0.43937499999999979 0 0.3908716102680424 0.47010282357248828 0 0.38707855792647411 0.42299362914874578 0 0.27474541102162192 0.11822029332053539 0 0.22985637510995899 0.1298347970200906 0 0.24218496799700481 0.089025544070598317 0 0.64753070846764316 0.77332939069435502 0 0.66427993341343905 0.73232764502436276 0 0.6916490518212759 0.75387992374886192 0 0 0.40000000000166441 0 0.050583896093752537 0.38543522283434112 0 0.035463093262830522 0.42673416072819947 0 0.73483647259922602 0.44789725365921768 0 0.73947346780852752 0.49062440112282169 0 0.69385896817107129 0.48377516041410151 0 0.57484956128872922 0.66573805030881994 0 0.52584555706968406 0.66664215091846768 0 0.5498280205245758 0.6290146943450976 0 0.60000000000138687 1 0 0.55000000000173355 1 0 0.57382506491224949 0.9629411906298494 0 0.068743045408989428 0.48853989837882689 0 0.085622222639554768 0.53333248912060549 0 0.044576108720083309 0.53509043209532614 0 0.083105206071467416 0.20007701332709979 0 0.044081577119474857 0.2271058242433576 0 0.038512288486115001 0.1844147282893184 0 0.083105206071452636 0.79992298667296435 0 0.038512288486097702 0.8155852717111195 0 0.04408157711937423 0.7728941757575627 0 0.28307294598219601 0.50789252727458634 0 0.23975172658309729 0.49475499200540818 0 0.25982634974572738 0.46097799597715272 0 0.43698630808430822 0.080423614171545449 0 0.39591832466117061 0.056982757562006353 0 0.4320097814748517 0.037406712692169303 0 0.4367309254023824 0.92065556789053882 0 0.4308986359464303 0.96395712492906194 0 0.39641108128798319 0.94356127926187128 0 0.80185942888539485 0.77452061303608133 0 0.75841349681148107 0.75422312624214749 0 0.78578450296893509 0.73292684821144505 0 0.80185942888501827 0.074520613036224564 0 0.7527966693318906 0.053051678021508272 0 0.78393852574753176 0.032039079577822822 0 0.6499999999999998 0.69999999999999996 0 0.62460753523532009 0.66851202781000296 0 0.675261390228442 0.65996937624687813 0 0.33123028043633618 0.77629643437932982 0 0.38586766253264881 0.78219501014812498 0 0.35642984951668422 0.80994399665655703 0 0.6405463747586706 0.63290524857395714 0 0.675261390228442 0.65996937624687813 0 0.62460753523532009 0.66851202781000296 0 0.22278230690790279 0.44824268025881547 0 0.191953871957803 0.42546416763755879 0 0.24049127783545701 0.41270748208749802 0 0.077693244765132896 0.56932317963405099 0 0.050069554451969707 0.61308520079857043 0 0.034381862692950467 0.57372682250960894 0 0.25195515620380449 0.25883339815888678 0 0.24432083401701241 0.3006253385567515 0 0.21049769590865089 0.26857363548218488 0 0.46666084890304671 0.57634471035397938 0 0.5166924242153631 0.59825134841919447 0 0.47095389620662098 0.61892551373708504 0 0.50715858906372158 0.63295939104129484 0 0.47095389620662098 0.61892551373708504 0 0.5166924242153631 0.59825134841919447 0 0.72525833953073282 0.1032114801687094 0 0.7527966693318906 0.053051678021508272 0 0.76878382444651716 0.097147941686331368 0 0.80185942888501827 0.074520613036224564 0 0.76878382444651716 0.097147941686331368 0 0.7527966693318906 0.053051678021508272 0 0.72500000000000064 0.7952620967744265 0 0.75841349681148107 0.75422312624214749 0 0.77094201086366854 0.79647480515688507 0 0.80185942888539485 0.77452061303608133 0 0.77094201086366854 0.79647480515688507 0 0.75841349681148107 0.75422312624214749 0 0.72500000000000064 0.7952620967744265 0 0.68024162096458085 0.79868546898116533 0 0.6916490518212759 0.75387992374886192 0 0.64753070846764316 0.77332939069435502 0 0.6916490518212759 0.75387992374886192 0 0.68024162096458085 0.79868546898116533 0 0 0.50000000000205869 0 0 0.45000000000187229 0 0.033550201249889847 0.46247875832467239 0 0.69999999999999984 0.69999999999999996 0 0.675261390228442 0.65996937624687813 0 0.72500000000000064 0.67022701834392062 0 0.71406021706547751 0.63292083137662503 0 0.72500000000000064 0.67022701834392062 0 0.675261390228442 0.65996937624687813 0 0.65408113592120842 0.073941773121567966 0 0.61940220174112337 0.047251958781050582 0 0.66369801598854572 0.036327466368102787 0 0.59999999999894682 0 0 0.61940220174112337 0.047251958781050582 0 0.57396793757665954 0.037011367187645222 0 0.60000000000138687 1 0 0.57382506491224949 0.9629411906298494 0 0.62065498684670595 0.95224934003983619 0 0.33122374654748771 0.57588941099433744 0 0.35765792684946668 0.6000687869219653 0 0.31502927232353312 0.6134992213375432 0 0.35864735590330371 0.63903383440414463 0 0.31502927232353312 0.6134992213375432 0 0.35765792684946668 0.6000687869219653 0 0.15801167086041079 0.46008690540259539 0 0.19604738184454831 0.47787523520405789 0 0.16618607197337229 0.50652878253548905 0 0.078358742472063481 0.43365249433908948 0 0.035463093262830522 0.42673416072819947 0 0.050583896093752537 0.38543522283434112 0 0.19901705110390991 0.9175543425573498 0 0.22850979588452081 0.95594428570238643 0 0.18474005699953849 0.96231585248064622 0 0.19922788606653311 0.085920220746880993 0 0.184418230509967 0.038773194583122873 0 0.22668068146512929 0.045875643423131329 0 0.19922788606653311 0.085920220746880993 0 0.24218496799700481 0.089025544070598317 0 0.22985637510995899 0.1298347970200906 0 0.74999999999999989 0.69999999999999996 0 0.78578450296893509 0.73292684821144505 0 0.75841349681148107 0.75422312624214749 0 0.74999999999934175 0 0 0.78393852574753176 0.032039079577822822 0 0.7527966693318906 0.053051678021508272 0 0 0.60000000000138687 0 0.034381862692950467 0.57372682250960894 0 0.050069554451969707 0.61308520079857043 0 0.2236846579037573 0.67380363126050236 0 0.26439878998046262 0.7048065392091396 0 0.2248999640082178 0.72584299459689172 0 0.6236733212988993 0.14864538214901801 0 0.58516465772821369 0.11653801664834119 0 0.61956000905586006 0.1043312481793135 0 0.26104540868854792 0.81401944968719064 0 0.2792923945214143 0.77665808831789485 0 0.30857225866488791 0.81101973481716805 0 0.42377727103934271 0.25099357235810238 0 0.42905200079338551 0.19982395548231649 0 0.46429753744194407 0.22870891180733599 0 0.27820712747429932 0.65530134213254643 0 0.31502927232353312 0.6134992213375432 0 0.32263089806001177 0.66003674931826484 0 0.61343887413683884 0.856862479058357 0 0.61885627562261258 0.90282959257498208 0 0.5832743223239254 0.88483152652961872 0 0.43698630808430822 0.080423614171545449 0 0.47040171442036788 0.044141676406503738 0 0.47881186583059909 0.093591717165689425 0 0.4367309254023824 0.92065556789053882 0 0.47401147028110507 0.91529957330468115 0 0.47135117303824892 0.95556877749289892 0 0.91696753777131557 0.497780560203536 0 0.95631871884947484 0.51827533208233789 0 0.90900154012161016 0.53607784105648792 0 0.93732437411268477 0.55911392101136159 0 0.90900154012161016 0.53607784105648792 0 0.95631871884947484 0.51827533208233789 0 0.27474541102162192 0.11822029332053539 0 0.25557216766470708 0.15874861286892261 0 0.22985637510995899 0.1298347970200906 0 0.2185883431182947 0.18019736283949719 0 0.22985637510995899 0.1298347970200906 0 0.25557216766470708 0.15874861286892261 0 0.29348325746214782 0.31350119524708198 0 0.33402499257867951 0.28911035184473982 0 0.32752639306529541 0.32610012995269699 0 0.27499999999933927 0.060310814194988557 0 0.32541448401678508 0.046215317981507749 0 0.3096713403101819 0.085471541595262421 0 0.27270076654418179 0.87751467830216623 0 0.24536017905392571 0.90704567837671446 0 0.2401283238295133 0.85648409884788523 0 1 0.44999999999963131 0 1 0.49999999999950101 0 0.96228564064454991 0.48206450662049471 0 0.61343887413683884 0.856862479058357 0 0.66412543161245952 0.88015090885499059 0 0.61885627562261258 0.90282959257498208 0 0 0.45000000000187229 0 0 0.40000000000166441 0 0.035463093262830522 0.42673416072819947 0 0.69999999999999984 0.69999999999999996 0 0.6916490518212759 0.75387992374886192 0 0.66427993341343905 0.73232764502436276 0 0.43846182030517877 0.64845797726506715 0 0.43323420005758778 0.6913544522562407 0 0.3977710372045391 0.65868194622830212 0 0.4367309254023824 0.92065556789053882 0 0.44003836461056539 0.88093474584252718 0 0.47401147028110507 0.91529957330468115 0 0.43846182030517877 0.64845797726506715 0 0.39743091024207589 0.6239520004230239 0 0.43545892161006339 0.61093128915313821 0 0.43846182030517877 0.64845797726506715 0 0.3977710372045391 0.65868194622830212 0 0.39743091024207589 0.6239520004230239 0 0.26429849586623999 0.19346700179430079 0 0.29336099386129338 0.15892013001050981 0 0.31255190597181792 0.19850845631528771 0 0.19670163708476801 0.31472518408333222 0 0.21049769590865089 0.26857363548218488 0 0.24432083401701241 0.3006253385567515 0 0.57724883562309992 0.92155686857100794 0 0.62065498684670595 0.95224934003983619 0 0.57382506491224949 0.9629411906298494 0 0.4409427642593301 0.35743108089689513 0 0.46655310992796922 0.39650496622958609 0 0.42161023666869668 0.39493916313643851 0 0.46666084890304671 0.57634471035397938 0 0.47095389620662098 0.61892551373708504 0 0.43545892161006339 0.61093128915313821 0 0.6879972333610942 0.43038561374960838 0 0.65178832218679827 0.45929119821019959 0 0.63912439215427275 0.41063340167983359 0 0.43698630808430822 0.080423614171545449 0 0.4320097814748517 0.037406712692169303 0 0.47040171442036788 0.044141676406503738 0 0.4367309254023824 0.92065556789053882 0 0.47135117303824892 0.95556877749289892 0 0.4308986359464303 0.96395712492906194 0 0.79680861578988083 0.92656778056766709 0 0.81486180804382891 0.96321394949790495 0 0.770759834363826 0.95919399014344442 0 0.79680861578956375 0.22656778056752541 0 0.81486180804364938 0.26321394949780091 0 0.77075983436335049 0.25919399014334171 0 0.71508799138962864 0.36622814920737751 0 0.68128176404677243 0.38629093627004979 0 0.68887083591306764 0.33632058575757479 0 0.35864735590330371 0.63903383440414463 0 0.32263089806001177 0.66003674931826484 0 0.31502927232353312 0.6134992213375432 0 0.21858834311891909 0.81980263716112767 0 0.2401283238295133 0.85648409884788523 0 0.19741632902693801 0.86755867406447229 0 0.35312867752657662 0.084946736076730367 0 0.32215584939770009 0.1218492143506909 0 0.3096713403101819 0.085471541595262421 0 0.35752321586431363 0.9185439911803448 0 0.35864759629805099 0.87963482415279515 0 0.39767323751400468 0.89584229130535065 0 0.41914690343363781 0.30688979866601612 0 0.4604742573284204 0.27846934318264788 0 0.46226845272279993 0.31901800744800313 0 0.33084213324567391 0.16272720141332131 0 0.32215584939770009 0.1218492143506909 0 0.36246644853392812 0.1399454205365751 0 0.46666084890304671 0.57634471035397938 0 0.42644501560315817 0.54603747078095544 0 0.47793794143994173 0.52940715638744962 0 0 0.60000000000138687 0 0 0.55000000000173355 0 0.034381862692950467 0.57372682250960894 0 0.77354604466818633 0.40378688774472771 0 0.74764719760526988 0.3719647154012321 0 0.78145581580700685 0.34881365920033602 0 0.34999999999912063 0 0 0.3615861437013822 0.03582617922508851 0 0.32541448401678508 0.046215317981507749 0 0.35000000000145642 1 0 0.32544832635163229 0.95485394099568932 0 0.36184234618600131 0.96443954459096326 0 0.57667858002728545 0.078486105337742612 0 0.57396793757665954 0.037011367187645222 0 0.61940220174112337 0.047251958781050582 0 0.47357141910802508 0.1873585799078378 0 0.50760557329222289 0.20700468884612061 0 0.46429753744194407 0.22870891180733599 0 0.49695729691142171 0.25014895411178018 0 0.46429753744194407 0.22870891180733599 0 0.50760557329222289 0.20700468884612061 0 0.33084213324567391 0.16272720141332131 0 0.3572130504031617 0.1874703368446563 0 0.31255190597181792 0.19850845631528771 0 0.6879972333610942 0.43038561374960838 0 0.63912439215427275 0.41063340167983359 0 0.68128176404677243 0.38629093627004979 0 0.65408113592120842 0.073941773121567966 0 0.65290632656860115 0.11434202593454081 0 0.61956000905586006 0.1043312481793135 0 0.33084213324567391 0.16272720141332131 0 0.31255190597181792 0.19850845631528771 0 0.29336099386129338 0.15892013001050981 0 0.61209567303293111 0.44669033081290321 0 0.63912439215427275 0.41063340167983359 0 0.65178832218679827 0.45929119821019959 0 0.086179601630648681 0.64647209519980475 0 0.1024350934457823 0.60772393977513839 0 0.1241190223511371 0.64391885572885044 0 0.44999999999882923 0 0 0.47040171442036788 0.044141676406503738 0 0.4320097814748517 0.037406712692169303 0 0.45000000000187229 1 0 0.4308986359464303 0.96395712492906194 0 0.47135117303824892 0.95556877749289892 0 0.74999999999934175 0 0 0.7527966693318906 0.053051678021508272 0 0.72683645290270404 0.027797073151180601 0 0.74999999999999989 0.69999999999999996 0 0.75841349681148107 0.75422312624214749 0 0.72501250972655151 0.74067302935308721 0 0.69999999999999984 0.69999999999999996 0 0.72501250972655151 0.74067302935308721 0 0.6916490518212759 0.75387992374886192 0 0.74999999999934175 0 0 0.79999999999947335 0 0 0.78393852574753176 0.032039079577822822 0 0.74999999999999989 0.69999999999999996 0 0.79999999999999982 0.69999999999999996 0 0.78578450296893509 0.73292684821144505 0 0.6405463747586706 0.63290524857395714 0 0.5991018319127801 0.62925360607495295 0 0.63065402604362242 0.59661356661633302 0 0.65481233915350323 0.35652751921065562 0 0.68887083591306764 0.33632058575757479 0 0.68128176404677243 0.38629093627004979 0 0.89999999999999991 0.29999999999999999 0 0.94999999999999996 0.29999999999999999 0 0.92012390126144183 0.33123581297173937 0 0.89999999999999991 0.69999999999999996 0 0.92057473616084773 0.66770436535372446 0 0.94999999999999996 0.69999999999999996 0 0.4367309254023824 0.92065556789053882 0 0.39767323751400468 0.89584229130535065 0 0.44003836461056539 0.88093474584252718 0 0.2185883431182947 0.18019736283949719 0 0.18124454140915969 0.18790916706335251 0 0.18652628422869419 0.14162325200928061 0 0.20050006573841939 0.53248514016039872 0 0.19604738184454831 0.47787523520405789 0 0.23975172658309729 0.49475499200540818 0 0.65507451745379841 0.92229208810758578 0 0.61885627562261258 0.90282959257498208 0 0.66412543161245952 0.88015090885499059 0 0.65394964615507722 0.22666784374016369 0 0.67933712972090698 0.25920070958121938 0 0.62657463266645097 0.26524202571255862 0 0.077693244765132896 0.56932317963405099 0 0.034381862692950467 0.57372682250960894 0 0.044576108720083309 0.53509043209532614 0 0.39801143831225599 0.16651381068160659 0 0.38831533174504851 0.2189834941785925 0 0.3572130504031617 0.1874703368446563 0 0.6499999999999998 0.69999999999999996 0 0.69999999999999984 0.69999999999999996 0 0.66427993341343905 0.73232764502436276 0 0.1215415378367805 0.72939333680004137 0 0.15332765547575641 0.71200081858233666 0 0.14335651144331049 0.75565258250209677 0 0.6405463747586706 0.63290524857395714 0 0.63065402604362242 0.59661356661633302 0 0.67529834988829951 0.61613270668143583 0 0.67323294229744413 0.57556450033612505 0 0.67529834988829951 0.61613270668143583 0 0.63065402604362242 0.59661356661633302 0 0.91750694127107502 0.36982372220068471 0 0.87430060258887643 0.34056085888204451 0 0.92012390126144183 0.33123581297173937 0 0.89999999999999991 0.29999999999999999 0 0.92012390126144183 0.33123581297173937 0 0.87430060258887643 0.34056085888204451 0 0.89999999999999991 0.69999999999999996 0 0.87712158428786946 0.65709029563313581 0 0.92057473616084773 0.66770436535372446 0 0.91750694127105259 0.63017627779935648 0 0.92057473616084773 0.66770436535372446 0 0.87712158428786946 0.65709029563313581 0 0.33122374654748771 0.57588941099433744 0 0.29110487519241501 0.56588143995431495 0 0.33190227185843768 0.52715113583864037 0 0.57484956128872922 0.66573805030881994 0 0.5498280205245758 0.6290146943450976 0 0.5991018319127801 0.62925360607495295 0 0.57412547362576272 0.58273804879550706 0 0.5991018319127801 0.62925360607495295 0 0.5498280205245758 0.6290146943450976 0 0.65408113592120842 0.073941773121567966 0 0.66369801598854572 0.036327466368102787 0 0.7010294155333181 0.056779085686491267 0 0.27474541102162192 0.11822029332053539 0 0.32215584939770009 0.1218492143506909 0 0.29336099386129338 0.15892013001050981 0 0.33084213324567391 0.16272720141332131 0 0.29336099386129338 0.15892013001050981 0 0.32215584939770009 0.1218492143506909 0 0.5 0.29999999999999999 0 0.54999999999999993 0.29999999999999999 0 0.52752007115234678 0.33170632466418198 0 0.83573492347052902 0.36590755630746369 0 0.87430060258887643 0.34056085888204451 0 0.86844634540301924 0.38530937474099819 0 0.83758014339878906 0.63222013025741819 0 0.87159648282691515 0.61285406320581504 0 0.87712158428786946 0.65709029563313581 0 0.22278230690790279 0.44824268025881547 0 0.23975172658309729 0.49475499200540818 0 0.19604738184454831 0.47787523520405789 0 1 0.49999999999950101 0 0.95631871884947484 0.51827533208233789 0 0.96228564064454991 0.48206450662049471 0 0.1650278706801647 0.38791388161335733 0 0.13773355295499351 0.42497777642586831 0 0.1117088112799664 0.38831403004970022 0 0.61209567303293111 0.44669033081290321 0 0.57975577671020095 0.46172033326338591 0 0.57744073070774993 0.41535148636609359 0 0.077693244765132896 0.56932317963405099 0 0.1154888278694548 0.56733818459978413 0 0.1024350934457823 0.60772393977513839 0 0.68697391633157634 0.84450604838764298 0 0.65005442820240822 0.82644988530054031 0 0.68024162096458085 0.79868546898116533 0 0.76901770135486491 0.84293557325473656 0 0.77094201086366854 0.79647480515688507 0 0.80041942726660109 0.81543261647703358 0 0.77144070960558853 0.14311854477243749 0 0.76878382444651716 0.097147941686331368 0 0.80076557130237269 0.1154587552654202 0 0.5 0.69999999999999996 0 0.52584555706968406 0.66664215091846768 0 0.54999999999999993 0.69999999999999996 0 0.077693244765132896 0.56932317963405099 0 0.044576108720083309 0.53509043209532614 0 0.085622222639554768 0.53333248912060549 0 0.69999999999921003 0 0 0.72683645290270404 0.027797073151180601 0 0.7010294155333181 0.056779085686491267 0 1 0 0 0.97166519676946894 0.033371144900598393 0 0.94999999999986839 0 0 1 0.69999999999999996 0 0.97166519676947294 0.73337114490064459 0 0.94999999999999996 0.69999999999999996 0 1 0.69999999999999996 0 1 0.74999999999993494 0 0.97166519676947294 0.73337114490064459 0 1 0.29999999999999999 0 0.97166519676951801 0.26662885509932011 0 1 0.24999999999987299 0 1 1 0 0.94999999999979179 1 0 0.97166519676946206 0.96662885509935492 0 1 0 0 1 0.049999999999896842 0 0.97166519676946894 0.033371144900598393 0 1 0.29999999999999999 0 0.94999999999999996 0.29999999999999999 0 0.97166519676951801 0.26662885509932011 0 1 1 0 0.97166519676946206 0.96662885509935492 0 1 0.94999999999997109 0 0 0.55000000000173355 0 0.044576108720083309 0.53509043209532614 0 0.034381862692950467 0.57372682250960894 0 0.6879972333610942 0.43038561374960838 0 0.69385896817107129 0.48377516041410151 0 0.65178832218679827 0.45929119821019959 0 0.33084213324567391 0.16272720141332131 0 0.36246644853392812 0.1399454205365751 0 0.3572130504031617 0.1874703368446563 0 0.65408113592120842 0.073941773121567966 0 0.68330259535470161 0.10038702501083881 0 0.65290632656860115 0.11434202593454081 0 0.16500388252850301 0.66612077714085194 0 0.19068556247388771 0.71028988922845504 0 0.15332765547575641 0.71200081858233666 0 0.82709327591091286 0.84937141670920724 0 0.85600844944837662 0.88483418979512773 0 0.81159157511211755 0.88795995483179491 0 0.82709327591102189 0.14937141670914489 0 0.85600844944842547 0.1848341897950983 0 0.81283102246527783 0.1881007222486438 0 0.79999999999999982 0.29999999999999999 0 0.84999999999999987 0.29999999999999999 0 0.82500000000000062 0.33010209762754811 0 0.79999999999999982 0.69999999999999996 0 0.82457059160610424 0.66831947184359608 0 0.84999999999999987 0.69999999999999996 0 0.59999999999999976 0.69999999999999996 0 0.62460753523532009 0.66851202781000296 0 0.6499999999999998 0.69999999999999996 0 0.39801143831225599 0.16651381068160659 0 0.3572130504031617 0.1874703368446563 0 0.36246644853392812 0.1399454205365751 0 0.69999999999999984 0.29999999999999999 0 0.74999999999999989 0.29999999999999999 0 0.73090396928863699 0.33699297293167962 0 0.69999999999999984 0.69999999999999996 0 0.72500000000000064 0.67022701834392062 0 0.74999999999999989 0.69999999999999996 0 0.6236733212988993 0.14864538214901801 0 0.64011864159029941 0.18789607982138171 0 0.59443395090188023 0.18455690917515069 0 0.20050006573841939 0.53248514016039872 0 0.16618607197337229 0.50652878253548905 0 0.19604738184454831 0.47787523520405789 0 0.79680861578956375 0.22656778056752541 0 0.76587607630038135 0.18880039518954719 0 0.81283102246527783 0.1881007222486438 0 0.79680861578988083 0.92656778056766709 0 0.76891166905518427 0.88835469571185499 0 0.81159157511211755 0.88795995483179491 0 0.71406021706547751 0.63292083137662503 0 0.675261390228442 0.65996937624687813 0 0.67529834988829951 0.61613270668143583 0 0.6405463747586706 0.63290524857395714 0 0.67529834988829951 0.61613270668143583 0 0.675261390228442 0.65996937624687813 0 0.19670163708476801 0.31472518408333222 0 0.168349569971391 0.28054490850913671 0 0.21049769590865089 0.26857363548218488 0 0.47357141910802508 0.1873585799078378 0 0.46429753744194407 0.22870891180733599 0 0.42905200079338551 0.19982395548231649 0 0.59814117807200873 0.23398510860739519 0 0.5794309697024993 0.27124795968204829 0 0.54248833945060504 0.2520322959927106 0 0.6541250972820879 0.49999999999999989 0 0.65178832218679827 0.45929119821019959 0 0.69385896817107129 0.48377516041410151 0 0.54999999999999993 0.29999999999999999 0 0.5794309697024993 0.27124795968204829 0 0.59999999999999976 0.29999999999999999 0 0.7750489929959945 0.66593931409600093 0 0.74994237037456724 0.62775548192980357 0 0.79884539758237771 0.62875045078114233 0 0.77293540622714185 0.59448302402785813 0 0.79884539758237771 0.62875045078114233 0 0.74994237037456724 0.62775548192980357 0 0.14332333627550789 0.14578431753966009 0 0.16141998738593399 0.10404039647458049 0 0.18652628422869419 0.14162325200928061 0 0.38083244760691543 0.38531983672244652 0 0.42161023666869668 0.39493916313643851 0 0.38707855792647411 0.42299362914874578 0 0.43249999999999988 0.43937499999999979 0 0.38707855792647411 0.42299362914874578 0 0.42161023666869668 0.39493916313643851 0 0.43846182030517877 0.64845797726506715 0 0.47095389620662098 0.61892551373708504 0 0.47913475093885149 0.66010775372412711 0 0.50715858906372158 0.63295939104129484 0 0.47913475093885149 0.66010775372412711 0 0.47095389620662098 0.61892551373708504 0 0.69999999999999984 0.69999999999999996 0 0.74999999999999989 0.69999999999999996 0 0.72501250972655151 0.74067302935308721 0 0.4089290844030305 0.58728915500154233 0 0.35765792684946668 0.6000687869219653 0 0.37272913873093971 0.56192925302619479 0 0.69999999999921003 0 0 0.74999999999934175 0 0 0.72683645290270404 0.027797073151180601 0 0.17933913398461551 0.2350063570234002 0 0.21049769590865089 0.26857363548218488 0 0.168349569971391 0.28054490850913671 0 0.14474682429600511 0.85524784522713515 0 0.10562472963403439 0.87143394428979881 0 0.1074251789111534 0.83564394292147814 0 0.14332333627550789 0.14578431753966009 0 0.106902708054812 0.16453234188234539 0 0.1053400320299198 0.12877248826361379 0 0.2236846579037573 0.67380363126050236 0 0.19914261668318661 0.62286739485272158 0 0.2459498854893499 0.63248470766216769 0 0.049999999999899652 0 0 0.053064897599215843 0.048131547304697528 0 0.02576622439977887 0.024532886826226379 0 0 0.050000000000207989 0 0.02576622439977887 0.024532886826226379 0 0.053064897599215843 0.048131547304697528 0 0.050000000000207989 1 0 0.025766224399875661 0.97546711317377799 0 0.053064897599294662 0.95186845269532028 0 0 0.94999999999979179 0 0.053064897599294662 0.95186845269532028 0 0.025766224399875661 0.97546711317377799 0 0.47357141910802508 0.1873585799078378 0 0.48466639505193998 0.1421439844745814 0 0.51729576145820033 0.1683240575987815 0 0.077693244765132896 0.56932317963405099 0 0.085622222639554768 0.53333248912060549 0 0.1154888278694548 0.56733818459978413 0 0.64753070846764316 0.77332939069435502 0 0.63221990677827677 0.73442891067859706 0 0.66427993341343905 0.73232764502436276 0 0.4656888918609538 0.78493261229743638 0 0.42609163930740518 0.80361684430568059 0 0.42676259796334498 0.76772545931379299 0 0.4089290844030305 0.58728915500154233 0 0.39743091024207589 0.6239520004230239 0 0.35765792684946668 0.6000687869219653 0 0.55306006949600994 0.20198184231352201 0 0.50760557329222289 0.20700468884612061 0 0.51729576145820033 0.1683240575987815 0 1 0.8999999999998336 0 1 0.94999999999997109 0 0.97435614836744289 0.92499999999990257 0 1 0.19999999999974799 0 1 0.24999999999987299 0 0.97435614836740092 0.22499999999981049 0 1 0.74999999999993494 0 1 0.7999999999998193 0 0.97435614836745565 0.77499999999987745 0 1 0.049999999999896842 0 1 0.099999999999753911 0 0.97435614836748241 0.074999999999825387 0 0.86411095495256451 0.42388805655111889 0 0.86844634540301924 0.38530937474099819 0 0.90594285160987287 0.4141265964174129 0 0.86956835336234861 0.571283299838105 0 0.91143117093204207 0.58709913730335972 0 0.87159648282691515 0.61285406320581504 0 0 0 0 0.02576622439977887 0.024532886826226379 0 0 0.050000000000207989 0 0 1 0 0 0.94999999999979179 0 0.025766224399875661 0.97546711317377799 0 0 1 0 0.025766224399875661 0.97546711317377799 0 0.050000000000207989 1 0 0 0 0 0.049999999999899652 0 0 0.02576622439977887 0.024532886826226379 0 0.65394964615507722 0.22666784374016369 0 0.64011864159029941 0.18789607982138171 0 0.6865991819015953 0.189116534044597 0 0.25195515620380449 0.25883339815888678 0 0.28040350263641872 0.23054717217092141 0 0.29132859388405002 0.27203693976649962 0 0.61209567303293111 0.44669033081290321 0 0.65178832218679827 0.45929119821019959 0 0.61547661924074692 0.48539576058873962 0 0.6541250972820879 0.49999999999999989 0 0.61547661924074692 0.48539576058873962 0 0.65178832218679827 0.45929119821019959 0 0.19670163708476801 0.31472518408333222 0 0.24432083401701241 0.3006253385567515 0 0.22615676742807109 0.33458786033114157 0 0.15801167086041079 0.46008690540259539 0 0.13773355295499351 0.42497777642586831 0 0.191953871957803 0.42546416763755879 0 0.1650278706801647 0.38791388161335733 0 0.191953871957803 0.42546416763755879 0 0.13773355295499351 0.42497777642586831 0 0.50715858906372158 0.63295939104129484 0 0.52584555706968406 0.66664215091846768 0 0.47913475093885149 0.66010775372412711 0 0.5 0.69999999999999996 0 0.47913475093885149 0.66010775372412711 0 0.52584555706968406 0.66664215091846768 0 0.51076801031701946 0.1202837388510348 0 0.51729576145820033 0.1683240575987815 0 0.48466639505193998 0.1421439844745814 0 0.71406021706547751 0.63292083137662503 0 0.74994237037456724 0.62775548192980357 0 0.72500000000000064 0.67022701834392062 0 0.71508799138962864 0.36622814920737751 0 0.73090396928863699 0.33699297293167962 0 0.74764719760526988 0.3719647154012321 0 0.22278230690790279 0.44824268025881547 0 0.25982634974572738 0.46097799597715272 0 0.23975172658309729 0.49475499200540818 0 0.80185942888539485 0.77452061303608133 0 0.78578450296893509 0.73292684821144505 0 0.81864958914779962 0.73589050177899629 0 0.80185942888501827 0.074520613036224564 0 0.78393852574753176 0.032039079577822822 0 0.81864958914740749 0.035890501779055867 0 0.5 0.29999999999999999 0 0.46226845272279993 0.31901800744800313 0 0.4604742573284204 0.27846934318264788 0 0.6405463747586706 0.63290524857395714 0 0.62460753523532009 0.66851202781000296 0 0.5991018319127801 0.62925360607495295 0 0.79680861578988083 0.92656778056766709 0 0.770759834363826 0.95919399014344442 0 0.75729602384198635 0.92353652857884294 0 0.79680861578956375 0.22656778056752541 0 0.77075983436335049 0.25919399014334171 0 0.75668890529066124 0.2244279804069782 0 0.65394964615507722 0.22666784374016369 0 0.69397719155551807 0.2245125647000914 0 0.67933712972090698 0.25920070958121938 0 0.81973119833356312 0.43505687159469048 0 0.84925632466077294 0.45359738909549091 0 0.81400510706333218 0.47357325943904899 0 0.83758014339878906 0.63222013025741819 0 0.82457059160610424 0.66831947184359608 0 0.79884539758237771 0.62875045078114233 0 0.25676291524611189 0.7436741304886243 0 0.2248999640082178 0.72584299459689172 0 0.26439878998046262 0.7048065392091396 0 0.91696753777131557 0.497780560203536 0 0.90900154012161016 0.53607784105648792 0 0.86907294890112186 0.52008116128001669 0 0.17933913398461551 0.2350063570234002 0 0.168349569971391 0.28054490850913671 0 0.14377654328998779 0.2442024734791064 0 0.1247745017231483 0.27198077544791172 0 0.14377654328998779 0.2442024734791064 0 0.168349569971391 0.28054490850913671 0 0.34258405725730701 0.4444034294386992 0 0.35221190152536241 0.40457127605439203 0 0.38707855792647411 0.42299362914874578 0 0.47357141910802508 0.1873585799078378 0 0.51729576145820033 0.1683240575987815 0 0.50760557329222289 0.20700468884612061 0 0.19670163708476801 0.31472518408333222 0 0.22615676742807109 0.33458786033114157 0 0.18434624290945251 0.35208838264196463 0 0.22033343844674469 0.36963382230740238 0 0.18434624290945251 0.35208838264196463 0 0.22615676742807109 0.33458786033114157 0 0.24432083401701241 0.3006253385567515 0 0.25966125648670141 0.34351016742083729 0 0.22615676742807109 0.33458786033114157 0 0.93814194660195893 0.44426664081746747 0 0.90594285160987287 0.4141265964174129 0 0.95871855522754235 0.40006508612975411 0 0.91750694127107502 0.36982372220068471 0 0.95871855522754235 0.40006508612975411 0 0.90594285160987287 0.4141265964174129 0 0.91750694127105259 0.63017627779935648 0 0.91143117093204207 0.58709913730335972 0 0.95867599106212187 0.60011091146651041 0 0.93732437411268477 0.55911392101136159 0 0.95867599106212187 0.60011091146651041 0 0.91143117093204207 0.58709913730335972 0 0.50715858906372158 0.63295939104129484 0 0.5498280205245758 0.6290146943450976 0 0.52584555706968406 0.66664215091846768 0 0.94399509803918602 0.75600490196082126 0 0.97435614836745565 0.77499999999987745 0 0.95386563387742829 0.80414874155775029 0 0.94399509803922566 0.056004901960802607 0 0.97435614836748241 0.074999999999825387 0 0.95386563387744361 0.1041487415577465 0 0.94399509803921056 0.24399509803922639 0 0.95391631417672862 0.19584263333809451 0 0.97435614836740092 0.22499999999981049 0 0.94399509803919068 0.9439950980391687 0 0.95391631417670719 0.89584263333814784 0 0.97435614836744289 0.92499999999990257 0 0.79680861578988083 0.92656778056766709 0 0.75729602384198635 0.92353652857884294 0 0.76891166905518427 0.88835469571185499 0 0.79680861578956375 0.22656778056752541 0 0.75668890529066124 0.2244279804069782 0 0.76587607630038135 0.18880039518954719 0 0.65394964615507722 0.22666784374016369 0 0.6865991819015953 0.189116534044597 0 0.69397719155551807 0.2245125647000914 0 0.38083244760691543 0.38531983672244652 0 0.38707855792647411 0.42299362914874578 0 0.35221190152536241 0.40457127605439203 0 1 0.7999999999998193 0 0.95386563387742829 0.80414874155775029 0 0.97435614836745565 0.77499999999987745 0 1 0.099999999999753911 0 0.95386563387744361 0.1041487415577465 0 0.97435614836748241 0.074999999999825387 0 1 0.8999999999998336 0 0.97435614836744289 0.92499999999990257 0 0.95391631417670719 0.89584263333814784 0 1 0.19999999999974799 0 0.97435614836740092 0.22499999999981049 0 0.95391631417672862 0.19584263333809451 0 0.84723782639812573 0.48638347960178252 0 0.81400510706333218 0.47357325943904899 0 0.84925632466077294 0.45359738909549091 0 0.54999999999999993 0.29999999999999999 0 0.54248833945060504 0.2520322959927106 0 0.5794309697024993 0.27124795968204829 0 0.94999999999999996 0.29999999999999999 0 0.95780851984364423 0.34215720972155339 0 0.92012390126144183 0.33123581297173937 0 0.94999999999999996 0.69999999999999996 0 0.92057473616084773 0.66770436535372446 0 0.9578014258160763 0.65787212321113708 0 0.15801167086041079 0.46008690540259539 0 0.113541300460994 0.46208784312094731 0 0.13773355295499351 0.42497777642586831 0 0.7250000000005199 0.94981617647078953 0 0.68015064798562208 0.95924320340003011 0 0.68987011941058407 0.92105047536677087 0 0.65507451745379841 0.92229208810758578 0 0.68987011941058407 0.92105047536677087 0 0.68015064798562208 0.95924320340003011 0 0.77846603114747959 0.49850927265137401 0 0.77972660463949339 0.45529290596363098 0 0.81400510706333218 0.47357325943904899 0 0.27866744612395528 0.38416094670951489 0 0.25966125648670141 0.34351016742083729 0 0.29644548887253103 0.34914008784168082 0 0.61209567303293111 0.44669033081290321 0 0.61547661924074692 0.48539576058873962 0 0.57975577671020095 0.46172033326338591 0 0.57611405284611883 0.50165903596042916 0 0.57975577671020095 0.46172033326338591 0 0.61547661924074692 0.48539576058873962 0 0.7250000000005199 0.89375000000045834 0 0.76891166905518427 0.88835469571185499 0 0.75729602384198635 0.92353652857884294 0 0.72500000000001008 0.19776155966387679 0 0.76587607630038135 0.18880039518954719 0 0.75668890529066124 0.2244279804069782 0 0.72500000000001008 0.19776155966387679 0 0.69397719155551807 0.2245125647000914 0 0.6865991819015953 0.189116534044597 0 0.083411279318303222 0.089699755330707398 0 0.12372429750337779 0.095814237875728972 0 0.1053400320299198 0.12877248826361379 0 0.083411279318375747 0.91030024466934134 0 0.10562472963403439 0.87143394428979881 0 0.1241151115713819 0.9045666525468371 0 0.14617343800780541 0.93808063414349496 0 0.1241151115713819 0.9045666525468371 0 0.16206583317966519 0.89685560785156404 0 0.14618258501891079 0.062070108745602003 0 0.16141998738593399 0.10404039647458049 0 0.12372429750337779 0.095814237875728972 0 0.33277555741076909 0.36432196682010132 0 0.35221190152536241 0.40457127605439203 0 0.31778888742534622 0.40581751814196781 0 0.7250000000005199 0.94981617647078953 0 0.75729602384198635 0.92353652857884294 0 0.770759834363826 0.95919399014344442 0 0.72500000000000064 0.2498161764706 0 0.75668890529066124 0.2244279804069782 0 0.77075983436335049 0.25919399014334171 0 0.72500000000000064 0.2498161764706 0 0.67933712972090698 0.25920070958121938 0 0.69397719155551807 0.2245125647000914 0 0.6236733212988993 0.14864538214901801 0 0.61956000905586006 0.1043312481793135 0 0.65290632656860115 0.11434202593454081 0 0.81973119833356312 0.43505687159469048 0 0.81400510706333218 0.47357325943904899 0 0.77972660463949339 0.45529290596363098 0 0.25676291524611189 0.7436741304886243 0 0.29904318922293632 0.74132814928635593 0 0.2792923945214143 0.77665808831789485 0 0.36575549820117997 0.31677992835137742 0 0.32752639306529541 0.32610012995269699 0 0.33402499257867951 0.28911035184473982 0 0.14332333627550789 0.14578431753966009 0 0.18652628422869419 0.14162325200928061 0 0.18124454140915969 0.18790916706335251 0 0.57724883562309992 0.92155686857100794 0 0.5832743223239254 0.88483152652961872 0 0.61885627562261258 0.90282959257498208 0 0.57667858002728545 0.078486105337742612 0 0.61956000905586006 0.1043312481793135 0 0.58516465772821369 0.11653801664834119 0 0.80185942888539485 0.77452061303608133 0 0.80041942726660109 0.81543261647703358 0 0.77094201086366854 0.79647480515688507 0 0.80185942888501827 0.074520613036224564 0 0.80076557130237269 0.1154587552654202 0 0.76878382444651716 0.097147941686331368 0 0.64753070846764316 0.77332939069435502 0 0.68024162096458085 0.79868546898116533 0 0.65005442820240822 0.82644988530054031 0 0.26429849586623999 0.19346700179430079 0 0.25557216766470708 0.15874861286892261 0 0.29336099386129338 0.15892013001050981 0 0.29348325746214782 0.31350119524708198 0 0.29644548887253103 0.34914008784168082 0 0.25966125648670141 0.34351016742083729 0 0.68391457121233579 0.14440470121196541 0 0.65290632656860115 0.11434202593454081 0 0.68330259535470161 0.10038702501083881 0 0.91750694127107502 0.36982372220068471 0 0.92012390126144183 0.33123581297173937 0 0.95780851984364423 0.34215720972155339 0 0.91750694127105259 0.63017627779935648 0 0.9578014258160763 0.65787212321113708 0 0.92057473616084773 0.66770436535372446 0 0.22033343844674469 0.36963382230740238 0 0.22615676742807109 0.33458786033114157 0 0.25966125648670141 0.34351016742083729 0 1 0.94999999999997109 0 0.97166519676946206 0.96662885509935492 0 0.97435614836744289 0.92499999999990257 0 0.94399509803919068 0.9439950980391687 0 0.97435614836744289 0.92499999999990257 0 0.97166519676946206 0.96662885509935492 0 0.94399509803921056 0.24399509803922639 0 0.97435614836740092 0.22499999999981049 0 0.97166519676951801 0.26662885509932011 0 1 0.24999999999987299 0 0.97166519676951801 0.26662885509932011 0 0.97435614836740092 0.22499999999981049 0 1 0.74999999999993494 0 0.97435614836745565 0.77499999999987745 0 0.97166519676947294 0.73337114490064459 0 1 0.049999999999896842 0 0.97435614836748241 0.074999999999825387 0 0.97166519676946894 0.033371144900598393 0 0.94399509803918602 0.75600490196082126 0 0.97166519676947294 0.73337114490064459 0 0.97435614836745565 0.77499999999987745 0 0.94399509803922566 0.056004901960802607 0 0.97166519676946894 0.033371144900598393 0 0.97435614836748241 0.074999999999825387 0 0.77846603114747959 0.49850927265137401 0 0.81400510706333218 0.47357325943904899 0 0.81441713509985358 0.51161854125224959 0 0.77354604466818633 0.40378688774472771 0 0.72622533758026719 0.40265885511101601 0 0.74764719760526988 0.3719647154012321 0 0.71508799138962864 0.36622814920737751 0 0.74764719760526988 0.3719647154012321 0 0.72622533758026719 0.40265885511101601 0 0.84723782639812573 0.48638347960178252 0 0.84925632466077294 0.45359738909549091 0 0.88594198078881503 0.46167788676578442 0 0.86411095495256451 0.42388805655111889 0 0.88594198078881503 0.46167788676578442 0 0.84925632466077294 0.45359738909549091 0 0.43846182030517877 0.64845797726506715 0 0.43545892161006339 0.61093128915313821 0 0.47095389620662098 0.61892551373708504 0 0.33123028043633618 0.77629643437932982 0 0.35642984951668422 0.80994399665655703 0 0.30857225866488791 0.81101973481716805 0 0.33403534827021109 0.84402799729020661 0 0.30857225866488791 0.81101973481716805 0 0.35642984951668422 0.80994399665655703 0 0.26429849586623999 0.19346700179430079 0 0.31255190597181792 0.19850845631528771 0 0.28040350263641872 0.23054717217092141 0 0.57724883562309992 0.92155686857100794 0 0.54783390826260769 0.89287767010860219 0 0.5832743223239254 0.88483152652961872 0 0.55899371797446828 0.85003102233514438 0 0.5832743223239254 0.88483152652961872 0 0.54783390826260769 0.89287767010860219 0 0.4089290844030305 0.58728915500154233 0 0.43545892161006339 0.61093128915313821 0 0.39743091024207589 0.6239520004230239 0 0.77293540622714185 0.59448302402785813 0 0.81723410853263523 0.59419663659258926 0 0.79884539758237771 0.62875045078114233 0 0.83758014339878906 0.63222013025741819 0 0.79884539758237771 0.62875045078114233 0 0.81723410853263523 0.59419663659258926 0 0.35864735590330371 0.63903383440414463 0 0.39743091024207589 0.6239520004230239 0 0.3977710372045391 0.65868194622830212 0 0.56202748619534593 0.15054058349222879 0 0.54979595918804436 0.1060565713905809 0 0.58516465772821369 0.11653801664834119 0 0.57667858002728545 0.078486105337742612 0 0.58516465772821369 0.11653801664834119 0 0.54979595918804436 0.1060565713905809 0 0.33122374654748771 0.57588941099433744 0 0.37272913873093971 0.56192925302619479 0 0.35765792684946668 0.6000687869219653 0 0.35864735590330371 0.63903383440414463 0 0.35765792684946668 0.6000687869219653 0 0.39743091024207589 0.6239520004230239 0 0.71508799138962864 0.36622814920737751 0 0.68887083591306764 0.33632058575757479 0 0.73090396928863699 0.33699297293167962 0 0.29348325746214782 0.31350119524708198 0 0.32752639306529541 0.32610012995269699 0 0.29644548887253103 0.34914008784168082 0 0.33277555741076909 0.36432196682010132 0 0.29644548887253103 0.34914008784168082 0 0.32752639306529541 0.32610012995269699 0 0.34258405725730701 0.4444034294386992 0 0.31778888742534622 0.40581751814196781 0 0.35221190152536241 0.40457127605439203 0 0.79999999999999982 0.69999999999999996 0 0.81864958914779962 0.73589050177899629 0 0.78578450296893509 0.73292684821144505 0 0.79999999999947335 0 0 0.81864958914740749 0.035890501779055867 0 0.78393852574753176 0.032039079577822822 0 0.27474541102162192 0.11822029332053539 0 0.29336099386129338 0.15892013001050981 0 0.25557216766470708 0.15874861286892261 0 0 0.45000000000187229 0 0.035463093262830522 0.42673416072819947 0 0.033550201249889847 0.46247875832467239 0 0.6499999999999998 0.69999999999999996 0 0.66427993341343905 0.73232764502436276 0 0.63221990677827677 0.73442891067859706 0 0.84723782639812573 0.48638347960178252 0 0.81441713509985358 0.51161854125224959 0 0.81400510706333218 0.47357325943904899 0 0.26104540868854792 0.81401944968719064 0 0.30857225866488791 0.81101973481716805 0 0.29209212897034281 0.84715728365233667 0 0.33403534827021109 0.84402799729020661 0 0.29209212897034281 0.84715728365233667 0 0.30857225866488791 0.81101973481716805 0 0.69999999999999984 0.29999999999999999 0 0.73090396928863699 0.33699297293167962 0 0.68887083591306764 0.33632058575757479 0 
</DataArray>
</Points>
<Cells>
<DataArray type="UInt32" Name="connectivity" format="ascii">
0 1 2 3 4 5 6 7 8 9 10 11 12 13 14 15 16 17 18 19 20 21 22 23 24 25 26 27 28 29 30 31 32 33 34 35 36 37 38 39 40 41 42 43 44 45 46 47 48 49 50 51 52 53 54 55 56 57 58 59 60 61 62 63 64 65 66 67 68 69 70 71 72 73 74 75 76 77 78 79 80 81 82 83 84 85 86 87 88 89 90 91 92 93 94 95 96 97 98 99 100 101 102 103 104 105 106 107 108 109 110 111 112 113 114 115 116 117 118 119 120 121 122 123 124 125 126 127 128 129 130 131 132 133 134 135 136 137 138 139 140 141 142 143 144 145 146 147 148 149 150 151 152 153 154 155 156 157 158 159 160 161 162 163 164 165 166 167 168 169 170 171 172 173 174 175 176 177 178 179 180 181 182 183 184 185 186 187 188 189 190 191 192 193 194 195 196 197 198 199 200 201 202 203 204 205 206 207 208 209 210 211 212 213 214 215 216 217 218 219 220 221 222 223 224 225 226 227 228 229 230 231 232 233 234 235 236 237 238 239 240 241 242 243 244 245 246 247 248 249 250 251 252 253 254 255 256 257 258 259 260 261 262 263 264 265 266 267 268 269 270 271 272 273 274 275 276 277 278 279 280 281 282 283 284 285 286 287 288 289 290 291 292 293 294 295 296 297 298 299 300 301 302 303 304 305 306 307 308 309 310 311 312 313 314 315 316 317 318 319 320 321 322 323 324 325 326 327 328 329 330 331 332 333 334 335 336 337 338 339 340 341 342 343 344 345 346 347 348 349 350 351 352 353 354 355 356 357 358 359 360 361 362 363 364 365 366 367 368 369 370 371 372 373 374 375 376 377 378 379 380 381 382 383 384 385 386 387 388 389 390 391 392 393 394 395 396 397 398 399 400 401 402 403 404 405 406 407 408 409 410 411 412 413 414 415 416 417 418 419 420 421 422 423 424 425 426 427 428 429 430 431 432 433 434 435 436 437 438 439 440 441 442 443 444 445 446 447 448 449 450 451 452 453 454 455 456 457 458 459 460 461 462 463 464 465 466 467 468 469 470 471 472 473 474 475 476 477 478 479 480 481 482 483 484 485 486 487 488 489 490 491 492 493 494 495 496 497 498 499 500 501 502 503 504 505 506 507 508 509 510 511 512 513 514 515 516 517 518 519 520 521 522 523 524 525 526 527 528 529 530 531 532 533 534 535 536 537 538 539 540 541 542 543 544 545 546 547 548 549 550 551 552 553 554 555 556 557 558 559 560 561 562 563 564 565 566 567 568 569 570 571 572 573 574 575 576 577 578 579 580 581 582 583 584 585 586 587 588 589 590 591 592 593 594 595 596 597 598 599 600 601 602 603 604 605 606 607 608 609 610 611 612 613 614 615 616 617 618 619 620 621 622 623 624 625 626 627 628 629 630 631 632 633 634 635 636 637 638 639 640 641 642 643 644 645 646 647 648 649 650 651 652 653 654 655 656 657 658 659 660 661 662 663 664 665 666 667 668 669 670 671 672 673 674 675 676 677 678 679 680 681 682 683 684 685 686 687 688 689 690 691 692 693 694 695 696 697 698 699 700 701 702 703 704 705 706 707 708 709 710 711 712 713 714 715 716 717 718 719 720 721 722 723 724 725 726 727 728 729 730 731 732 733 734 735 736 737 738 739 740 741 742 743 744 745 746 747 748 749 750 751 752 753 754 755 756 757 758 759 760 761 762 763 764 765 766 767 768 769 770 771 772 773 774 775 776 777 778 779 780 781 782 783 784 785 786 787 788 789 790 791 792 793 794 795 796 797 798 799 800 801 802 803 804 805 806 807 808 809 810 811 812 813 814 815 816 817 818 819 820 821 822 823 824 825 826 827 828 829 830 831 832 833 834 835 836 837 838 839 840 841 842 843 844 845 846 847 848 849 850 851 852 853 854 855 856 857 858 859 860 861 862 863 864 865 866 867 868 869 870 871 872 873 874 875 876 877 878 879 880 881 882 883 884 885 886 887 888 889 890 891 892 893 894 895 896 897 898 899 900 901 902 903 904 905 906 907 908 909 910 911 912 913 914 915 916 917 918 919 920 921 922 923 924 925 926 927 928 929 930 931 932 933 934 935 936 937 938 939 940 941 942 943 944 945 946 947 948 949 950 951 952 953 954 955 956 957 958 959 960 961 962 963 964 965 966 967 968 969 970 971 972 973 974 975 976 977 978 979 980 981 982 983 984 985 986 987 988 989 990 991 992 993 994 995 996 997 998 999 1000 1001 1002 1003 1004 1005 1006 1007 1008 1009 1010 1011 1012 1013 1014 1015 1016 1017 1018 1019 1020 1021 1022 1023 1024 1025 1026 1027 1028 1029 1030 1031 1032 1033 1034 1035 1036 1037 1038 1039 1040 1041 1042 1043 1044 1045 1046 1047 1048 1049 1050 1051 1052 1053 1054 1055 1056 1057 1058 1059 1060 1061 1062 1063 1064 1065 1066 1067 1068 1069 1070 1071 1072 1073 1074 1075 1076 1077 1078 1079 1080 1081 1082 1083 1084 1085 1086 1087 1088 1089 1090 1091 1092 1093 1094 1095 1096 1097 1098 1099 1100 1101 1102 1103 1104 1105 1106 1107 1108 1109 1110 1111 1112 1113 1114 1115 1116 1117 1118 1119 1120 1121 1122 1123 1124 1125 1126 1127 1128 1129 1130 1131 1132 1133 1134 1135 1136 1137 1138 1139 1140 1141 1142 1143 1144 1145 1146 1147 1148 1149 1150 1151 1152 1153 1154 1155 1156 1157 1158 1159 1160 1161 1162 1163 1164 1165 1166 1167 1168 1169 1170 1171 1172 1173 1174 1175 1176 1177 1178 1179 1180 1181 1182 1183 1184 1185 1186 1187 1188 1189 1190 1191 1192 1193 1194 1195 1196 1197 1198 1199 1200 1201 1202 1203 1204 1205 1206 1207 1208 1209 1210 1211 1212 1213 1214 1215 1216 1217 1218 1219 1220 1221 1222 1223 1224 1225 1226 1227 1228 1229 1230 1231 1232 1233 1234 1235 1236 1237 1238 1239 1240 1241 1242 1243 1244 1245 1246 1247 1248 1249 1250 1251 1252 1253 1254 1255 1256 1257 1258 1259 1260 1261 1262 1263 1264 1265 1266 1267 1268 1269 1270 1271 1272 1273 1274 1275 1276 1277 1278 1279 1280 1281 1282 1283 1284 1285 1286 1287 1288 1289 1290 1291 1292 1293 1294 1295 1296 1297 1298 1299 1300 1301 1302 1303 1304 1305 1306 1307 1308 1309 1310 1311 1312 1313 1314 1315 1316 1317 1318 1319 1320 1321 1322 1323 1324 1325 1326 1327 1328 1329 1330 1331 1332 1333 1334 1335 1336 1337 1338 1339 1340 1341 1342 1343 1344 1345 1346 1347 1348 1349 1350 1351 1352 1353 1354 1355 1356 1357 1358 1359 1360 1361 1362 1363 1364 1365 1366 1367 1368 1369 1370 1371 1372 1373 1374 1375 1376 1377 1378 1379 1380 1381 1382 1383 1384 1385 1386 1387 1388 1389 1390 1391 1392 1393 1394 1395 1396 1397 1398 1399 1400 1401 1402 1403 1404 1405 1406 1407 1408 1409 1410 1411 1412 1413 1414 1415 1416 1417 1418 1419 1420 1421 1422 1423 1424 1425 1426 1427 1428 1429 1430 1431 1432 1433 1434 1435 1436 1437 1438 1439 1440 1441 1442 1443 1444 1445 1446 1447 1448 1449 1450 1451 1452 1453 1454 1455 1456 1457 1458 1459 1460 1461 1462 1463 1464 1465 1466 1467 1468 1469 1470 1471 1472 1473 1474 1475 1476 1477 1478 1479 1480 1481 1482 1483 1484 1485 1486 1487 1488 1489 1490 1491 1492 1493 1494 1495 1496 1497 1498 1499 1500 1501 1502 1503 1504 1505 1506 1507 1508 1509 1510 1511 1512 1513 1514 1515 1516 1517 1518 1519 1520 1521 1522 1523 1524 1525 1526 1527 1528 1529 1530 1531 1532 1533 1534 1535 1536 1537 1538 1539 1540 1541 1542 1543 1544 1545 1546 1547 1548 1549 1550 1551 1552 1553 1554 1555 1556 1557 1558 1559 1560 1561 1562 1563 1564 1565 1566 1567 1568 1569 1570 1571 1572 1573 1574 1575 1576 1577 1578 1579 1580 1581 1582 1583 1584 1585 1586 1587 1588 1589 1590 1591 1592 1593 1594 1595 1596 1597 1598 1599 1600 1601 1602 1603 1604 1605 1606 1607 1608 1609 1610 1611 1612 1613 1614 1615 1616 1617 1618 1619 1620 1621 1622 1623 1624 1625 1626 1627 1628 1629 1630 1631 1632 1633 1634 1635 1636 1637 1638 1639 1640 1641 1642 1643 1644 1645 1646 1647 1648 1649 1650 1651 1652 1653 1654 1655 1656 1657 1658 1659 1660 1661 1662 1663 1664 1665 1666 1667 1668 1669 1670 1671 1672 1673 1674 1675 1676 1677 1678 1679 1680 1681 1682 1683 1684 1685 1686 1687 1688 1689 1690 1691 1692 1693 1694 1695 1696 1697 1698 1699 1700 1701 1702 1703 1704 1705 1706 1707 1708 1709 1710 1711 1712 1713 1714 1715 1716 1717 1718 1719 1720 1721 1722 1723 1724 1725 1726 1727 1728 1729 1730 1731 1732 1733 1734 1735 1736 1737 1738 1739 1740 1741 1742 1743 1744 1745 1746 1747 1748 1749 1750 1751 1752 1753 1754 1755 1756 1757 1758 1759 1760 1761 1762 1763 1764 1765 1766 1767 1768 1769 1770 1771 1772 1773 1774 1775 1776 1777 1778 1779 1780 1781 1782 1783 1784 1785 1786 1787 1788 1789 1790 1791 1792 1793 1794 1795 1796 1797 1798 1799 1800 1801 1802 1803 1804 1805 1806 1807 1808 1809 1810 1811 1812 1813 1814 1815 1816 1817 1818 1819 1820 1821 1822 1823 1824 1825 1826 1827 1828 1829 1830 1831 1832 1833 1834 1835 1836 1837 1838 1839 1840 1841 1842 1843 1844 1845 1846 1847 1848 1849 1850 1851 1852 1853 1854 1855 1856 1857 1858 1859 1860 1861 1862 1863 1864 1865 1866 1867 1868 1869 1870 1871 1872 1873 1874 1875 1876 1877 1878 1879 1880 1881 1882 1883 1884 1885 1886 1887 1888 1889 1890 1891 1892 1893 1894 1895 1896 1897 1898 1899 1900 1901 1902 1903 1904 1905 1906 1907 1908 1909 1910 1911 1912 1913 1914 1915 1916 1917 1918 1919 1920 1921 1922 1923 1924 1925 1926 1927 1928 1929 1930 1931 1932 1933 1934 1935 1936 1937 1938 1939 1940 1941 1942 1943 1944 1945 1946 1947 1948 1949 1950 1951 1952 1953 1954 1955 1956 1957 1958 1959 1960 1961 1962 1963 1964 1965 1966 1967 1968 1969 1970 1971 1972 1973 1974 1975 1976 1977 1978 1979 1980 1981 1982 1983 1984 1985 1986 1987 1988 1989 1990 1991 1992 1993 1994 1995 1996 1997 1998 1999 2000 2001 2002 2003 2004 2005 2006 2007 2008 2009 2010 2011 2012 2013 2014 2015 2016 2017 2018 2019 2020 2021 2022 2023 2024 2025 2026 2027 2028 2029 2030 2031 2032 2033 2034 2035 2036 2037 2038 2039 2040 2041 2042 2043 2044 2045 2046 2047 2048 2049 2050 2051 2052 2053 2054 2055 2056 2057 2058 2059 2060 2061 2062 2063 2064 2065 2066 2067 2068 2069 2070 2071 2072 2073 2074 2075 2076 2077 2078 2079 2080 2081 2082 2083 2084 2085 2086 2087 2088 2089 2090 2091 2092 2093 2094 2095 2096 2097 2098 2099 2100 2101 2102 2103 2104 2105 2106 2107 2108 2109 2110 2111 2112 2113 2114 2115 2116 2117 2118 2119 2120 2121 2122 2123 2124 2125 2126 2127 2128 2129 2130 2131 2132 2133 2134 2135 2136 2137 2138 2139 2140 2141 2142 2143 2144 2145 2146 2147 2148 2149 2150 2151 2152 2153 2154 2155 2156 2157 2158 2159 2160 2161 2162 2163 2164 2165 2166 2167 2168 2169 2170 2171 2172 2173 2174 2175 2176 2177 2178 2179 2180 2181 2182 2183 2184 2185 2186 2187 2188 2189 2190 2191 2192 2193 2194 2195 2196 2197 2198 2199 2200 2201 2202 2203 2204 2205 2206 2207 2208 2209 2210 2211 2212 2213 2214 2215 2216 2217 2218 2219 2220 2221 2222 2223 2224 2225 2226 2227 2228 2229 2230 2231 2232 2233 2234 2235 2236 2237 2238 2239 2240 2241 2242 2243 2244 2245 2246 2247 2248 2249 2250 2251 2252 2253 2254 2255 2256 2257 2258 2259 2260 2261 2262 2263 2264 2265 2266 2267 2268 2269 2270 2271 2272 2273 2274 2275 2276 2277 2278 2279 2280 2281 2282 2283 2284 2285 2286 2287 2288 2289 2290 2291 2292 2293 2294 2295 2296 2297 2298 2299 2300 2301 2302 2303 2304 2305 2306 2307 2308 2309 2310 2311 2312 2313 2314 2315 2316 2317 2318 2319 2320 2321 2322 2323 2324 2325 2326 2327 2328 2329 2330 2331 2332 2333 2334 2335 2336 2337 2338 2339 2340 2341 2342 2343 2344 2345 2346 2347 2348 2349 2350 2351 2352 2353 2354 2355 2356 2357 2358 2359 2360 2361 2362 2363 2364 2365 2366 2367 2368 2369 2370 2371 2372 2373 2374 2375 2376 2377 2378 2379 2380 2381 2382 2383 2384 2385 2386 2387 2388 2389 2390 2391 2392 2393 2394 2395 2396 2397 2398 2399 2400 2401 2402 2403 2404 2405 2406 2407 2408 2409 2410 2411 2412 2413 2414 2415 2416 2417 2418 2419 2420 2421 2422 2423 2424 2425 2426 2427 2428 2429 2430 2431 2432 2433 2434 2435 2436 2437 2438 2439 2440 2441 2442 2443 2444 2445 2446 2447 2448 2449 2450 2451 2452 2453 2454 2455 2456 2457 2458 2459 2460 2461 2462 2463 2464 2465 2466 2467 2468 2469 2470 2471 2472 2473 2474 2475 2476 2477 2478 2479 2480 2481 2482 2483 2484 2485 2486 2487 2488 2489 2490 2491 2492 2493 2494 2495 2496 2497 2498 2499 2500 2501 2502 2503 2504 2505 2506 2507 2508 2509 2510 2511 2512 2513 2514 2515 2516 2517 2518 2519 2520 2521 2522 2523 2524 2525 2526 2527 2528 2529 2530 2531 2532 2533 2534 2535 2536 2537 2538 2539 2540 2541 2542 2543 2544 2545 2546 2547 2548 2549 2550 2551 2552 2553 2554 2555 2556 2557 2558 2559 2560 2561 2562 2563 2564 2565 2566 2567 2568 2569 2570 2571 2572 2573 2574 2575 2576 2577 2578 2579 2580 2581 2582 2583 2584 2585 2586 2587 2588 2589 2590 2591 2592 2593 2594 2595 2596 2597 2598 2599 2600 2601 2602 2603 2604 2605 2606 2607 2608 2609 2610 2611 2612 2613 2614 2615 2616 2617 2618 2619 2620 2621 2622 2623 2624 2625 2626 2627 2628 2629 2630 2631 2632 2633 2634 2635 2636 2637 2638 2639 2640 2641 2642 2643 2644 2645 2646 2647 2648 2649 2650 2651 2652 2653 2654 2655 2656 2657 2658 2659 2660 2661 2662 2663 2664 2665 2666 2667 2668 2669 2670 2671 2672 2673 2674 2675 2676 2677 2678 2679 2680 2681 2682 2683 2684 2685 2686 2687 2688 2689 2690 2691 2692 2693 2694 2695 2696 2697 2698 2699 2700 2701 2702 2703 2704 2705 2706 2707 2708 2709 2710 2711 2712 2713 2714 2715 2716 2717 2718 2719 2720 2721 2722 2723 2724 2725 2726 2727 2728 2729 2730 2731 2732 2733 2734 2735 2736 2737 2738 2739 2740 2741 2742 2743 2744 2745 2746 2747 2748 2749 2750 2751 2752 2753 2754 2755 2756 2757 2758 2759 2760 2761 2762 2763 2764 2765 2766 2767 2768 2769 2770 2771 2772 2773 2774 2775 2776 2777 2778 2779 2780 2781 2782 2783 2784 2785 2786 2787 2788 2789 2790 2791 2792 2793 2794 2795 2796 2797 2798 2799 2800 2801 2802 2803 2804 2805 2806 2807 2808 2809 2810 2811 2812 2813 2814 2815 2816 2817 2818 2819 2820 2821 2822 2823 2824 2825 2826 2827 2828 2829 2830 2831 2832 2833 2834 2835 2836 2837 2838 2839 2840 2841 2842 2843 2844 2845 2846 2847 2848 2849 2850 2851 2852 2853 2854 2855 2856 2857 2858 2859 2860 2861 2862 2863 2864 2865 2866 2867 2868 2869 2870 2871 2872 2873 2874 2875 2876 2877 2878 2879 2880 2881 2882 2883 2884 2885 2886 2887 2888 2889 2890 2891 2892 2893 2894 2895 2896 2897 2898 2899 2900 2901 2902 2903 2904 2905 2906 2907 2908 2909 2910 2911 2912 2913 2914 2915 2916 2917 2918 2919 2920 2921 2922 2923 2924 2925 2926 2927 2928 2929 2930 2931 2932 2933 2934 2935 2936 2937 2938 2939 2940 2941 2942 2943 2944 2945 2946 2947 2948 2949 2950 2951 2952 2953 2954 2955 2956 2957 2958 2959 2960 2961 2962 2963 2964 2965 2966 2967 2968 2969 2970 2971 2972 2973 2974 2975 2976 2977 2978 2979 2980 2981 2982 2983 2984 2985 2986 2987 2988 2989 2990 2991 2992 2993 2994 2995 2996 2997 2998 2999 3000 3001 3002 3003 3004 3005 3006 3007 3008 3009 3010 3011 3012 3013 3014 3015 3016 3017 3018 3019 3020 3021 3022 3023 3024 3025 3026 3027 3028 3029 3030 3031 3032 3033 3034 3035 3036 3037 3038 3039 3040 3041 3042 3043 3044 3045 3046 3047 3048 3049 3050 3051 3052 3053 3054 3055 3056 3057 3058 3059 3060 3061 3062 3063 3064 3065 3066 3067 3068 3069 3070 3071 3072 3073 3074 3075 3076 3077 3078 3079 3080 3081 3082 3083 3084 3085 3086 3087 3088 3089 3090 3091 3092 3093 3094 3095 3096 3097 3098 3099 3100 3101 3102 3103 3104 3105 3106 3107 3108 3109 3110 3111 3112 3113 3114 3115 3116 3117 3118 3119 3120 3121 3122 3123 3124 3125 3126 3127 3128 3129 3130 3131 3132 3133 3134 3135 3136 3137 3138 3139 3140 3141 
</DataArray>
<DataArray type="UInt32" Name="offsets" format="ascii">
2 4 6 8 10 12 14 16 18 20 22 24 26 28 30 32 34 36 38 40 43 46 49 52 55 58 61 64 67 70 73 76 79 82 85 88 91 94 97 100 103 106 109 112 115 118 121 124 127 130 133 136 139 142 145 148 151 154 157 160 163 166 169 172 175 178 181 184 187 190 193 196 199 202 205 208 211 214 217 220 223 226 229 232 235 238 241 244 247 250 253 256 259 262 265 268 271 274 277 280 283 286 289 292 295 298 301 304 307 310 313 316 319 322 325 328 331 334 337 340 343 346 349 352 355 358 361 364 367 370 373 376 379 382 385 388 391 394 397 400 403 406 409 412 415 418 421 424 427 430 433 436 439 442 445 448 451 454 457 460 463 466 469 472 475 478 481 484 487 490 493 496 499 502 505 508 511 514 517 520 523 526 529 532 535 538 541 544 547 550 553 556 559 562 565 568 571 574 577 580 583 586 589 592 595 598 601 604 607 610 613 616 619 622 625 628 631 634 637 640 643 646 649 652 655 658 661 664 667 670 673 676 679 682 685 688 691 694 697 700 703 706 709 712 715 718 721 724 727 730 733 736 739 742 745 748 751 754 757 760 763 766 769 772 775 778 781 784 787 790 793 796 799 802 805 808 811 814 817 820 823 826 829 832 835 838 841 844 847 850 853 856 859 862 865 868 871 874 877 880 883 886 889 892 895 898 901 904 907 910 913 916 919 922 925 928 931 934 937 940 943 946 949 952 955 958 961 964 967 970 973 976 979 982 985 988 991 994 997 1000 1003 1006 1009 1012 1015 1018 1021 1024 1027 1030 1033 1036 1039 1042 1045 1048 1051 1054 1057 1060 1063 1066 1069 1072 1075 1078 1081 1084 1087 1090 1093 1096 1099 1102 1105 1108 1111 1114 1117 1120 1123 1126 1129 1132 1135 1138 1141 1144 1147 1150 1153 1156 1159 1162 1165 1168 1171 1174 1177 1180 1183 1186 1189 1192 1195 1198 1201 1204 1207 1210 1213 1216 1219 1222 1225 1228 1231 1234 1237 1240 1243 1246 1249 1252 1255 1258 1261 1264 1267 1270 1273 1276 1279 1282 1285 1288 1291 1294 1297 1300 1303 1306 1309 1312 1315 1318 1321 1324 1327 1330 1333 1336 1339 1342 1345 1348 1351 1354 1357 1360 1363 1366 1369 1372 1375 1378 1381 1384 1387 1390 1393 1396 1399 1402 1405 1408 1411 1414 1417 1420 1423 1426 1429 1432 1435 1438 1441 1444 1447 1450 1453 1456 1459 1462 1465 1468 1471 1474 1477 1480 1483 1486 1489 1492 1495 1498 1501 1504 1507 1510 1513 1516 1519 1522 1525 1528 1531 1534 1537 1540 1543 1546 1549 1552 1555 1558 1561 1564 1567 1570 1573 1576 1579 1582 1585 1588 1591 1594 1597 1600 1603 1606 1609 1612 1615 1618 1621 1624 1627 1630 1633 1636 1639 1642 1645 1648 1651 1654 1657 1660 1663 1666 1669 1672 1675 1678 1681 1684 1687 1690 1693 1696 1699 1702 1705 1708 1711 1714 1717 1720 1723 1726 1729 1732 1735 1738 1741 1744 1747 1750 1753 1756 1759 1762 1765 1768 1771 1774 1777 1780 1783 1786 1789 1792 1795 1798 1801 1804 1807 1810 1813 1816 1819 1822 1825 1828 1831 1834 1837 1840 1843 1846 1849 1852 1855 1858 1861 1864 1867 1870 1873 1876 1879 1882 1885 1888 1891 1894 1897 1900 1903 1906 1909 1912 1915 1918 1921 1924 1927 1930 1933 1936 1939 1942 1945 1948 1951 1954 1957 1960 1963 1966 1969 1972 1975 1978 1981 1984 1987 1990 1993 1996 1999 2002 2005 2008 2011 2014 2017 2020 2023 2026 2029 2032 2035 2038 2041 2044 2047 2050 2053 2056 2059 2062 2065 2068 2071 2074 2077 2080 2083 2086 2089 2092 2095 2098 2101 2104 2107 2110 2113 2116 2119 2122 2125 2128 2131 2134 2137 2140 2143 2146 2149 2152 2155 2158 2161 2164 2167 2170 2173 2176 2179 2182 2185 2188 2191 2194 2197 2200 2203 2206 2209 2212 2215 2218 2221 2224 2227 2230 2233 2236 2239 2242 2245 2248 2251 2254 2257 2260 2263 2266 2269 2272 2275 2278 2281 2284 2287 2290 2293 2296 2299 2302 2305 2308 2311 2314 2317 2320 2323 2326 2329 2332 2335 2338 2341 2344 2347 2350 2353 2356 2359 2362 2365 2368 2371 2374 2377 2380 2383 2386 2389 2392 2395 2398 2401 2404 2407 2410 2413 2416 2419 2422 2425 2428 2431 2434 2437 2440 2443 2446 2449 2452 2455 2458 2461 2464 2467 2470 2473 2476 2479 2482 2485 2488 2491 2494 2497 2500 2503 2506 2509 2512 2515 2518 2521 2524 2527 2530 2533 2536 2539 2542 2545 2548 2551 2554 2557 2560 2563 2566 2569 2572 2575 2578 2581 2584 2587 2590 2593 2596 2599 2602 2605 2608 2611 2614 2617 2620 2623 2626 2629 2632 2635 2638 2641 2644 2647 2650 2653 2656 2659 2662 2665 2668 2671 2674 2677 2680 2683 2686 2689 2692 2695 2698 2701 2704 2707 2710 2713 2716 2719 2722 2725 2728 2731 2734 2737 2740 2743 2746 2749 2752 2755 2758 2761 2764 2767 2770 2773 2776 2779 2782 2785 2788 2791 2794 2797 2800 2803 2806 2809 2812 2815 2818 2821 2824 2827 2830 2833 2836 2839 2842 2845 2848 2851 2854 2857 2860 2863 2866 2869 2872 2875 2878 2881 2884 2887 2890 2893 2896 2899 2902 2905 2908 2911 2914 2917 2920 2923 2926 2929 2932 2935 2938 2941 2944 2947 2950 2953 2956 2959 2962 2965 2968 2971 2974 2977 2980 2983 2986 2989 2992 2995 2998 3001 3004 3007 3010 3013 3016 3019 3022 3025 3028 3031 3034 3037 3040 3043 3046 3049 3052 3055 3058 3061 3064 3067 3070 3073 3076 3079 3082 3085 3088 3091 3094 3097 3100 3103 3106 3109 3112 3115 3118 3121 3124 3127 3130 3133 3136 3139 3142 
</DataArray>
<DataArray type="UInt32" Name="types" format="ascii">
3 3 3 3 3 3 3 3 3 3 3 3 3 3 3 3 3 3 3 3 5 5 5 5 5 5 5 5 5 5 5 5 5 5 5 5 5 5 5 5 5 5 5 5 5 5 5 5 5 5 5 5 5 5 5 5 5 5 5 5 5 5 5 5 5 5 5 5 5 5 5 5 5 5 5 5 5 5 5 5 5 5 5 5 5 5 5 5 5 5 5 5 5 5 5 5 5 5 5 5 5 5 5 5 5 5 5 5 5 5 5 5 5 5 5 5 5 5 5 5 5 5 5 5 5 5 5 5 5 5 5 5 5 5 5 5 5 5 5 5 5 5 5 5 5 5 5 5 5 5 5 5 5 5 5 5 5 5 5 5 5 5 5 5 5 5 5 5 5 5 5 5 5 5 5 5 5 5 5 5 5 5 5 5 5 5 5 5 5 5 5 5 5 5 5 5 5 5 5 5 5 5 5 5 5 5 5 5 5 5 5 5 5 5 5 5 5 5 5 5 5 5 5 5 5 5 5 5 5 5 5 5 5 5 5 5 5 5 5 5 5 5 5 5 5 5 5 5 5 5 5 5 5 5 5 5 5 5 5 5 5 5 5 5 5 5 5 5 5 5 5 5 5 5 5 5 5 5 5 5 5 5 5 5 5 5 5 5 5 5 5 5 5 5 5 5 5 5 5 5 5 5 5 5 5 5 5 5 5 5 5 5 5 5 5 5 5 5 5 5 5 5 5 5 5 5 5 5 5 5 5 5 5 5 5 5 5 5 5 5 5 5 5 5 5 5 5 5 5 5 5 5 5 5 5 5 5 5 5 5 5 5 5 5 5 5 5 5 5 5 5 5 5 5 5 5 5 5 5 5 5 5 5 5 5 5 5 5 5 5 5 5 5 5 5 5 5 5 5 5 5 5 5 5 5 5 5 5 5 5 5 5 5 5 5 5 5 5 5 5 5 5 5 5 5 5 5 5 5 5 5 5 5 5 5 5 5 5 5 5 5 5 5 5 5 5 5 5 5 5 5 5 5 5 5 5 5 5 5 5 5 5 5 5 5 5 5 5 5 5 5 5 5 5 5 5 5 5 5 5 5 5 5 5 5 5 5 5 5 5 5 5 5 5 5 5 5 5 5 5 5 5 5 5 5 5 5 5 5 5 5 5 5 5 5 5 5 5 5 5 5 5 5 5 5 5 5 5 5 5 5 5 5 5 5 5 5 5 5 5 5 5 5 5 5 5 5 5 5 5 5 5 5 5 5 5 5 5 5 5 5 5 5 5 5 5 5 5 5 5 5 5 5 5 5 5 5 5 5 5 5 5 5 5 5 5 5 5 5 5 5 5 5 5 5 5 5 5 5 5 5 5 5 5 5 5 5 5 5 5 5 5 5 5 5 5 5 5 5 5 5 5 5 5 5 5 5 5 5 5 5 5 5 5 5 5 5 5 5 5 5 5 5 5 5 5 5 5 5 5 5 5 5 5 5 5 5 5 5 5 5 5 5 5 5 5 5 5 5 5 5 5 5 5 5 5 5 5 5 5 5 5 5 5 5 5 5 5 5 5 5 5 5 5 5 5 5 5 5 5 5 5 5 5 5 5 5 5 5 5 5 5 5 5 5 5 5 5 5 5 5 5 5 5 5 5 5 5 5 5 5 5 5 5 5 5 5 5 5 5 5 5 5 5 5 5 5 5 5 5 5 5 5 5 5 5 5 5 5 5 5 5 5 5 5 5 5 5 5 5 5 5 5 5 5 5 5 5 5 5 5 5 5 5 5 5 5 5 5 5 5 5 5 5 5 5 5 5 5 5 5 5 5 5 5 5 5 5 5 5 5 5 5 5 5 5 5 5 5 5 5 5 5 5 5 5 5 5 5 5 5 5 5 5 5 5 5 5 5 5 5 5 5 5 5 5 5 5 5 5 5 5 5 5 5 5 5 5 5 5 5 5 5 5 5 5 5 5 5 5 5 5 5 5 5 5 5 5 5 5 5 5 5 5 5 5 5 5 5 5 5 5 5 5 5 5 5 5 5 5 5 5 5 5 5 5 5 5 5 5 5 5 5 5 5 5 5 5 5 5 5 5 5 5 5 5 5 5 5 5 5 5 5 5 5 5 5 5 5 5 5 5 5 5 5 5 5 5 5 5 5 5 5 5 5 5 5 5 5 5 5 5 5 5 5 5 5 5 5 5 5 5 5 5 5 5 5 5 5 5 5 5 5 5 5 5 5 5 5 5 5 5 5 5 5 5 5 5 5 5 5 5 5 5 5 5 5 5 5 5 5 5 5 5 5 5 5 5 5 5 5 5 5 5 5 5 5 5 5 5 5 5 5 5 5 5 5 5 5 5 5 5 5 5 5 5 5 5 5 5 5 5 5 5 
</DataArray>
</Cells>
<PointData Scalars="" Vectors="displacement," Tensors="">
<DataArray type="Float64" Name="displacement" NumberOfComponents="3" format="ascii">
-1.8714125799335139e-05 -1.7921586718902798e-05 0 -2.0177204765941565e-05 -2.4274015657978835e-05 0 -2.0177204765941565e-05 -2.4274015657978835e-05 0 -2.1906482107758229e-05 -3.1537837080796165e-05 0 -2.1906482107758229e-05 -3.1537837080796165e-05 0 -2.3874522337957787e-05 -3.9896673157312971e-05 0 -2.3874522337957787e-05 -3.9896673157312971e-05 0 -2.5701901555939685e-05 -4.8541189560002177e-05 0 -2.5701901555939685e-05 -4.8541189560002177e-05 0 -2.7338613289300192e-05 -5.7168057838356546e-05 0 -2.7338613289300192e-05 -5.7168057838356546e-05 0 -2.8922013380844821e-05 -6.5675292710208377e-05 0 -2.8922013380844821e-05 -6.5675292710208377e-05 0 -3.0584889097143155e-05 -7.3676075203617128e-05 0 -3.0584889097143155e-05 -7.3676075203617128e-05 0 -3.2309794175349885e-05 -8.1564225330248011e-05 0 -3.2309794175349885e-05 -8.1564225330248011e-05 0 -3.3429321160166754e-05 -8.7945395227396464e-05 0 -3.3429321160166754e-05 -8.7945395227396464e-05 0 -3.6934384207729795e-05 -9.4914990421107371e-05 0 1.4379182133537238e-06 2.4273120414607755e-05 0 5.3451447080563114e-06 3.7333141999636879e-05 0 5.3451447080563114e-06 3.7333141999636879e-05 0 4.4014084599168617e-06 4.3786222411122048e-05 0 4.4014084599168617e-06 4.3786222411122048e-05 0 3.1919949997711289e-06 5.6114592376558639e-05 0 3.1919949997711289e-06 5.6114592376558639e-05 0 1.6086172572284111e-06 6.6979036067530971e-05 0 1.6086172572284111e-06 6.6979036067530971e-05 0 -2.9150590746372547e-07 7.9009695201129833e-05 0 -2.9150590746372547e-07 7.9009695201129833e-05 0 -2.5062767635965286e-06 9.1163967573377384e-05 0 -2.5062767635965286e-06 9.1163967573377384e-05 0 -4.8660556447709189e-06 0.00010211728632473267 0 -4.8660556447709189e-06 0.00010211728632473267 0 -8.6171414490840798e-06 0.00011511346340582446 0 -8.6171414490840798e-06 0.00011511346340582446 0 -7.6765816977632668e-06 0.00012385216743293764 0 -7.6765816977632668e-06 0.00012385216743293764 0 -2.5450386635645261e-05 0.0001366060036508317 0 -1.5372961602519394e-05 -7.4700527901348171e-06 0 -1.162224597260662e-05 -3.1152858329131421e-06 0 -1.4282211679122225e-05 -6.5752524162490257e-06 0 -1.3696806984263044e-05 -4.5135742513135548e-06 0 -1.162224597260662e-05 -3.1152858329131421e-06 0 -1.5372961602519394e-05 -7.4700527901348171e-06 0 -2.6768503365000938e-05 -1.3618830909634552e-05 0 -2.3454160067164611e-05 -1.0232829188014786e-05 0 -2.4111446339963768e-05 -1.3489610258939208e-05 0 -2.4111446339963768e-05 -1.3489610258939208e-05 0 -2.3454160067164614e-05 -1.0232829188014786e-05 0 -2.1445640610264087e-05 -1.2207463925743948e-05 0 -1.375535510382203e-05 4.5255683160484268e-06 0 -5.9832257213643158e-06 1.2244661441828442e-06 0 -1.2450134770155542e-05 2.6299414923966852e-06 0 -9.9958424913341021e-06 -4.2206981681715439e-06 0 -8.9786485732540182e-06 -2.9437336212699165e-06 0 -4.3611167278720821e-06 -1.4675130737642035e-06 0 -7.085299521798099e-06 3.2358870403364459e-06 0 -5.9832257213643158e-06 1.2244661441828442e-06 0 -1.375535510382203e-05 4.5255683160484268e-06 0 -5.3007892460742139e-06 -2.8596759455479823e-06 0 -9.9958424913341021e-06 -4.2206981681715439e-06 0 -4.3611167278720821e-06 -1.4675130737642035e-06 0 -2.5166797167456065e-05 -8.9612757723572487e-06 0 -3.0676286313308161e-05 -1.1555875561889426e-05 0 -2.4290430492981892e-05 -8.0646558735507243e-06 0 -4.6819821889488427e-05 1.5520035337641637e-05 0 -3.7357447398241022e-05 1.0935106454551318e-05 0 -3.6500344947104043e-05 1.0191326656869522e-05 0 -2.9651689790962956e-06 8.3138185438867867e-07 0 -3.7790800053282458e-06 1.7367997923469469e-06 0 -4.0435472565549224e-06 5.6036159193532795e-07 0 -5.2512989128014154e-06 2.3259601250457558e-06 0 -4.0435472565549233e-06 5.6036159193532795e-07 0 -3.7790800053282458e-06 1.7367997923469469e-06 0 -5.2756258705106524e-06 3.2449544938285787e-07 0 -6.9699102532077372e-06 -1.3665948272851642e-07 0 -4.8199642000732507e-06 5.9869604791804325e-07 0 -2.3207730623850508e-09 -5.652206409888727e-10 0 -1.8020982908334966e-09 -3.8547044320406762e-10 0 -1.9770442727844579e-06 -8.4020642946220168e-07 0 -1.839437002598638e-09 2.8746489746135878e-10 0 -2.1680966362724362e-09 2.925003924212182e-10 0 -2.0216766540959522e-06 5.2272243563155968e-07 0 -3.0363214264781462e-05 -1.7930827153157609e-05 0 -3.0398644189018981e-05 -1.780888748126802e-05 0 -2.6768503365000938e-05 -1.3618830909634552e-05 0 1.7809313724195714e-08 2.7235757950225067e-05 0 -5.0785128052259489e-06 1.808645562386453e-05 0 -6.8445279068956464e-06 1.8535427130123525e-05 0 -4.938266636628112e-05 -0.00014841115786437615 0 -4.1264007107441551e-05 -0.0001390806100141715 0 -4.9361006218481199e-05 -0.00013543886120170423 0 -6.1326784341139917e-05 0.00031830914978490997 0 -8.2492209575922719e-05 0.00029645551227262888 0 -6.1208928499454447e-05 0.00028805772729602195 0 -6.1326784341139917e-05 0.00031830914978490997 0 -6.1208928499454447e-05 0.00028805772729602195 0 -4.0912276431650232e-05 0.00029601237982095546 0 -4.938266636628112e-05 -0.00014841115786437615 0 -4.9361006218481199e-05 -0.00013543886120170423 0 -5.8157052022154148e-05 -0.00013897861618233768 0 -8.618238894666014e-05 0.0002711905629768968 0 -5.910870766877375e-05 0.0002588788946049532 0 -6.1208928499454447e-05 0.00028805772729602195 0 -3.9339276638690231e-05 -0.00012762677650567778 0 -4.9471405197538928e-05 -0.00012209900176286784 0 -4.9361006218481199e-05 -0.00013543886120170423 0 -5.2756258705106524e-06 3.2449544938285787e-07 0 -4.8199642000732507e-06 5.9869604791804325e-07 0 -3.4788302269815649e-06 6.6439538715047883e-07 0 1.7809313724195714e-08 2.7235757950225067e-05 0 -9.6671815228241538e-06 2.4628013543043408e-05 0 -5.0785128052259489e-06 1.808645562386453e-05 0 -0.00010353602263670327 8.2129438723686923e-05 0 -9.3027346293060364e-05 6.1598466094223833e-05 0 -7.5298081648896435e-05 6.5835760076230968e-05 0 -5.5708016170800331e-05 -3.3029394472491298e-05 0 -6.1466891785913355e-05 -4.2065529598930775e-05 0 -4.8536766713473713e-05 -3.4913201436441803e-05 0 -2.5663032585503213e-05 -1.4827261145657457e-05 0 -3.0363214264781462e-05 -1.7930827153157609e-05 0 -2.6768503365000938e-05 -1.3618830909634552e-05 0 -5.2320771580075189e-05 5.3906467708017391e-05 0 -4.5478116673321829e-05 3.3464886034518429e-05 0 -3.6977175501060938e-05 3.5533113684224327e-05 0 -2.6484381775256058e-05 1.1616653235751604e-05 0 -3.5683753668132145e-05 1.6496360866718322e-05 0 -3.351318198849816e-05 1.082935764618963e-05 0 -1.8812809904489735e-05 -2.4224861754983006e-06 0 -1.6262499689172738e-05 1.2032922198768341e-06 0 -2.0557969343063201e-05 -5.0374951915259173e-06 0 -4.7969924375662943e-05 -0.00010823340548684699 0 -4.0323083192057843e-05 -0.0001039860473728406 0 -4.7659607781524801e-05 -9.3392325785378522e-05 0 -5.9181331314946196e-05 0.00022925198995022358 0 -7.665438479264328e-05 0.00022078630330347107 0 -5.4500379726477668e-05 0.00019614349746926475 0 -4.7659607781524801e-05 -9.3392325785378522e-05 0 -4.0323083192057843e-05 -0.0001039860473728406 0 -3.8813760436080596e-05 -9.11826817700819e-05 0 -5.4500379726477668e-05 0.00019614349746926475 0 -7.665438479264328e-05 0.00022078630330347107 0 -7.5297867175497867e-05 0.00019650652811266796 0 -2.6484381775256058e-05 1.1616653235751604e-05 0 -3.351318198849816e-05 1.082935764618963e-05 0 -2.3457891134005193e-05 7.5413283668174976e-06 0 -1.9143044507604192e-05 -6.6995281299038662e-06 0 -1.5611606721766323e-05 3.2485563565780599e-06 0 -1.8812809904489735e-05 -2.4224861754983006e-06 0 -5.2320771580075189e-05 5.3906467708017391e-05 0 -5.9835393725183884e-05 4.6558541125224589e-05 0 -4.5478116673321829e-05 3.3464886034518429e-05 0 1.7809313724195714e-08 2.7235757950225067e-05 0 1.069305154966548e-05 6.7966491985448006e-05 0 -1.0980117131495687e-05 7.0387650295497601e-05 0 -4.1723124521042037e-05 -4.2632962235948928e-05 0 -3.7714959106641687e-05 -3.9771489961121543e-05 0 -4.2074974349032294e-05 -4.037622605934413e-05 0 -2.6814928395527198e-05 -4.3416553779921726e-05 0 -2.5898516606181382e-05 -4.1252602493391261e-05 0 -2.7183119537169636e-05 -4.3644506360918769e-05 0 -1.3207564847378439e-05 6.3901392383201016e-06 0 -1.6262499689172738e-05 1.2032922198768341e-06 0 -1.8812809904489735e-05 -2.4224861754983006e-06 0 -2.3027840431538814e-05 -0.00013414796845125055 0 -3.0192807070104224e-05 -0.00012492456578053909 0 -3.3000902574280996e-05 -0.00013606450033818183 0 -0.00013382472919584848 0.00029443746370819206 0 -0.00011049185155755228 0.00026847201914791807 0 -0.00010580235586131545 0.00029139846247504687 0 -1.4678950335745068e-09 -2.9528991327668459e-10 0 -1.161910815341943e-06 -2.3185783543015919e-07 0 -1.3648699831582684e-06 -5.3037360018980895e-07 0 -1.6049587986511032e-09 3.0368251081020045e-10 0 -1.5855853216203556e-06 5.4726880122528625e-07 0 -1.4428025080835845e-06 5.9493731265540397e-07 0 -5.2320771580075189e-05 5.3906467708017391e-05 0 -3.6839971528818905e-05 5.1603320328019637e-05 0 -4.8486825002326731e-05 7.7965683333286944e-05 0 -2.8768911315556546e-05 6.915865179604226e-05 0 -4.8486825002326731e-05 7.7965683333286944e-05 0 -3.6839971528818905e-05 5.1603320328019637e-05 0 -1.5649041354554027e-05 4.3898796796085897e-05 0 1.7809313724195774e-08 2.7235757950225067e-05 0 -1.0980117131495687e-05 7.0387650295497601e-05 0 -0.00013354163478023121 0.00024261601230638093 0 -0.0001006313049827379 0.00024325117162764012 0 -0.00011049185155755228 0.00026847201914791807 0 -1.8899020777493827e-05 -0.00010939922499896826 0 -3.2391009783044467e-05 -0.00011335544937974196 0 -3.0192807070104224e-05 -0.00012492456578053906 0 -2.7245209942926729e-05 -3.7433659569581371e-05 0 -2.7559038285436793e-05 -3.4085591614786291e-05 0 -2.9682416689269777e-05 -3.6854631150536426e-05 0 -1.8567905863658458e-05 -2.5861619881939931e-06 0 -2.0557969343063201e-05 -5.0374951915259173e-06 0 -1.6262499689172738e-05 1.2032922198768341e-06 0 -2.2998517211078323e-05 -9.6718230002897385e-06 0 -2.5159976194242176e-05 -1.4183747004527608e-05 0 -2.2782357328365501e-05 -1.384551871174408e-05 0 -1.8602820481048394e-05 -2.272007527703637e-05 0 -1.8722404744149056e-05 -1.9474048303172528e-05 0 -2.2699650141916669e-05 -2.4248846787289911e-05 0 -0.00012072457829088599 0.00013204972608191231 0 -9.3780430377648612e-05 0.00011438306689433196 0 -0.00010342320635445063 0.00014717157760075979 0 -8.0115981732055799e-05 -0.00011477934960284229 0 -7.021989827944818e-05 -0.00012673343711252789 0 -6.6459142297937832e-05 -0.00011577773016899258 0 1.069154831393346e-05 0.00023399742436771103 0 -1.3605606152626218e-05 0.00026588289805903268 0 -1.8916440827002576e-05 0.00024245484726551311 0 -2.0920865443259859e-05 -0.00012164066998428023 0 -3.0192807070104224e-05 -0.00012492456578053906 0 -2.3027840431538814e-05 -0.00013414796845125055 0 -0.00013382472919584848 0.00029443746370819206 0 -0.00013387794095237127 0.00026893060487399699 0 -0.00011049185155755228 0.00026847201914791807 0 -3.5357160641426438e-05 -3.5178493618144841e-05 0 -3.591357996664269e-05 -3.2222692925243311e-05 0 -3.7914323607384606e-05 -3.5563206432924653e-05 0 -1.8913010651980471e-05 -1.80923822314332e-05 0 -2.2227624221494822e-05 -2.1912513888489036e-05 0 -2.3164183650936418e-05 -3.1674982434234037e-05 0 -3.5357160641426438e-05 -3.5178493618144841e-05 0 -3.380783029411626e-05 -3.2480490961598532e-05 0 -3.591357996664269e-05 -3.2222692925243311e-05 0 -2.1883907523554254e-05 -1.9684364455543276e-05 0 -2.2699650141916669e-05 -2.4248846787289911e-05 0 -1.8722404744149056e-05 -1.9474048303172528e-05 0 -4.097932113996802e-05 -5.4246576221700111e-05 0 -4.4263295349234801e-05 -6.9814148664015837e-05 0 -3.499313140537296e-05 -5.7614532463875293e-05 0 -3.2709538744338021e-09 2.7123189691894184e-10 0 -4.3611167278720821e-06 -1.4675130737642035e-06 0 -3.0391143799220153e-06 -4.5211462764461795e-07 0 -4.5696839409249625e-09 -6.180857565970833e-10 0 -4.0525737099363401e-06 -7.7979990964832669e-08 0 -5.9832257213643158e-06 1.2244661441828442e-06 0 -4.1723124521042037e-05 -4.2632962235948928e-05 0 -3.7609750150238597e-05 -4.2728093982460697e-05 0 -3.7714959106641687e-05 -3.9771489961121543e-05 0 -2.7396262401883269e-05 -4.4705939328332225e-05 0 -2.6814928395527198e-05 -4.3416553779921726e-05 0 -2.7183119537169636e-05 -4.3644506360918769e-05 0 -3.4161384016614444e-09 -8.7625672425585966e-10 0 -5.2257131899301651e-06 -5.9758012396326705e-07 0 -4.0525737099363392e-06 -7.7979990964832987e-08 0 -2.7196868443667085e-09 3.6563309589516389e-10 0 -3.0391143799220153e-06 -4.5211462764461795e-07 0 -4.1221203206664514e-06 -2.2476244875409919e-07 0 -4.0435472565549224e-06 5.6036159193532795e-07 0 -3.2103888559879429e-06 -6.5987909668157798e-07 0 -2.8792242553879736e-06 6.0354310085187876e-08 0 -1.4764811234481193e-05 -5.4829136263334613e-06 0 -1.2388631284092906e-05 -3.4970778887663088e-06 0 -8.9786485732540182e-06 -2.9437336212699165e-06 0 -2.0875100549119804e-05 5.8906996860339839e-06 0 -1.2450134770155542e-05 2.6299414923966856e-06 0 -1.7255431950958403e-05 3.0222876913698952e-06 0 -2.6293450538079213e-05 -2.4073450646468206e-05 0 -2.4598159550420585e-05 -2.0114121708819676e-05 0 -2.7819510436007697e-05 -2.203307800295351e-05 0 -2.5828719304890039e-05 -1.7959968016460229e-05 0 -2.2782357328365501e-05 -1.384551871174408e-05 0 -2.5159976194242176e-05 -1.4183747004527608e-05 0 5.0299344285291532e-06 0.00028621575634906317 0 -1.9843257533947414e-05 0.00028929034426750284 0 -1.3605606152626218e-05 0.00026588289805903268 0 -8.0378796368484132e-05 -0.0001380473083156168 0 -6.8105350705121816e-05 -0.00013669629346639862 0 -7.021989827944818e-05 -0.00012673343711252789 0 -2.5828719304890039e-05 -1.7959968016460229e-05 0 -2.7819510436007697e-05 -2.203307800295351e-05 0 -2.4598159550420585e-05 -2.0114121708819676e-05 0 -2.7559038285436793e-05 -3.4085591614786291e-05 0 -2.4914211790477085e-05 -3.3019856152668356e-05 0 -2.6553042836783902e-05 -2.934823270014776e-05 0 -7.5759610140858739e-05 0.00017135595112156333 0 -6.6479986057758962e-05 0.00013622195426733332 0 -5.2443967461452502e-05 0.00014869828443564361 0 -4.5696839409249625e-09 -6.180857565970833e-10 0 -4.8552399155129128e-09 3.2769550731743872e-10 0 -4.0525737099363392e-06 -7.7979990964832987e-08 0 -3.6405817644269853e-09 -4.1296450922381571e-10 0 -3.2709538744338021e-09 2.7123189691894184e-10 0 -3.0391143799220153e-06 -4.5211462764461795e-07 0 -4.0435472565549224e-06 5.6036159193532795e-07 0 -5.1120434427381276e-06 4.791993722698976e-08 0 -3.2103888559879429e-06 -6.5987909668157798e-07 0 -3.643822631007631e-05 0.00027012467938782156 0 -6.1208928499454447e-05 0.00028805772729602195 0 -5.910870766877375e-05 0.0002588788946049532 0 -5.9659128932195018e-05 -0.00012746740717747821 0 -4.9361006218481199e-05 -0.00013543886120170423 0 -4.9471405197538928e-05 -0.00012209900176286784 0 -4.4263295349234801e-05 -6.9814148664015837e-05 0 -3.6268852743028052e-05 -6.9786590584229916e-05 0 -3.499313140537296e-05 -5.7614532463875293e-05 0 -1.6725052380227721e-06 4.3745452716016302e-07 0 -2.3590035917476897e-06 8.4653613299670839e-07 0 -2.1538812235670687e-06 5.0606292567612795e-07 0 -1.4895537096808937e-05 2.4580958714308194e-06 0 -1.1540931518424684e-05 2.2565178730816699e-06 0 -1.6969605721514297e-05 4.6074014158704355e-06 0 -2.4914211790477085e-05 -3.3019856152668356e-05 0 -2.3542397004497862e-05 -2.9079827386581249e-05 0 -2.6553042836783902e-05 -2.934823270014776e-05 0 -2.1538812235670687e-06 5.0606292567612795e-07 0 -2.3590035917476897e-06 8.4653613299670839e-07 0 -2.7116815370794352e-06 9.930460892415097e-07 0 -2.3590035917476897e-06 8.4653613299670839e-07 0 -1.4291194818328854e-06 5.1237258444220036e-07 0 -2.506362894625534e-06 8.6415503737110565e-07 0 -1.8890416170177205e-06 7.1760817354603568e-07 0 -2.506362894625534e-06 8.6415503737110565e-07 0 -1.4291194818328854e-06 5.1237258444220036e-07 0 -3.8299438863358367e-05 -3.4172881158544165e-05 0 -3.591357996664269e-05 -3.2222692925243311e-05 0 -3.760920189120691e-05 -3.1301023212569112e-05 0 -2.2998517211078323e-05 -9.6718230002897385e-06 0 -2.2782357328365498e-05 -1.3845518711744078e-05 0 -2.1089461893662814e-05 -8.1211595105813731e-06 0 -2.7245209942926729e-05 -3.7433659569581371e-05 0 -2.4914211790477085e-05 -3.3019856152668356e-05 0 -2.7559038285436793e-05 -3.4085591614786291e-05 0 -1.3207564847378439e-05 6.3901392383201016e-06 0 -1.8812809904489735e-05 -2.4224861754982998e-06 0 -1.5611606721766323e-05 3.2485563565780599e-06 0 7.9780679771356956e-06 0.0002598345508394587 0 5.0299344285291532e-06 0.00028621575634906317 0 -1.3605606152626218e-05 0.00026588289805903268 0 -8.0398136271750542e-05 -0.00012669992173976218 0 -8.0378796368484132e-05 -0.0001380473083156168 0 -7.021989827944818e-05 -0.00012673343711252789 0 -8.0115981732055799e-05 -0.00011477934960284229 0 -8.0398136271750542e-05 -0.00012669992173976218 0 -7.021989827944818e-05 -0.00012673343711252789 0 1.069154831393346e-05 0.00023399742436771103 0 7.9780679771356956e-06 0.0002598345508394587 0 -1.3605606152626218e-05 0.00026588289805903268 0 -9.0360082380087278e-06 1.0571226793251064e-05 0 -8.9409450567185044e-06 8.3789420126360666e-06 0 -1.3207564847378439e-05 6.3901392383201016e-06 0 -4.7063626814373028e-06 7.542358686067477e-07 0 -3.1057503117202569e-06 8.5910626017068667e-07 0 -4.8199642000732507e-06 5.9869604791804325e-07 0 -2.7751895262536352e-06 7.673481197574625e-07 0 -4.8199642000732507e-06 5.9869604791804325e-07 0 -3.1057503117202569e-06 8.5910626017068667e-07 0 -1.1690911680064786e-05 0.00014997501425136831 0 -5.6253479202411583e-06 0.00016826491546631183 0 -3.1601386385580308e-05 0.00017006511220519113 0 -5.6253479202411583e-06 0.00016826491546631183 0 -1.2984048893610219e-05 0.00018779929561045042 0 -3.1601386385580308e-05 0.00017006511220519113 0 -1.9143044507604192e-05 -6.6995281299038662e-06 0 -1.8812809904489732e-05 -2.422486175498301e-06 0 -2.1089461893662814e-05 -8.1211595105813731e-06 0 -2.8284901537748188e-05 -4.501270707596458e-05 0 -2.7183119537169636e-05 -4.3644506360918769e-05 0 -2.832404155294337e-05 -4.2136978351416568e-05 0 -3.3579064770576386e-05 -4.33035765326921e-05 0 -3.4411482705725183e-05 -3.939027752225021e-05 0 -3.7714959106641687e-05 -3.9771489961121543e-05 0 -8.9409450567185044e-06 8.3789420126360666e-06 0 -1.1881194261084571e-05 4.7827613252623163e-06 0 -1.3207564847378439e-05 6.3901392383201016e-06 0 -0.00013387794095237127 0.00026893060487399699 0 -0.00013354163478023121 0.00024261601230638093 0 -0.00011049185155755228 0.00026847201914791807 0 -1.8899020777493827e-05 -0.00010939922499896826 0 -3.0192807070104224e-05 -0.00012492456578053906 0 -2.0920865443259859e-05 -0.00012164066998428023 0 -3.0676286313308161e-05 -1.1555875561889426e-05 0 -3.0277580899709738e-05 -1.1418932716712047e-05 0 -2.4290430492981892e-05 -8.0646558735507243e-06 0 -4.6819821889488427e-05 1.5520035337641637e-05 0 -3.6500344947104043e-05 1.0191326656869522e-05 0 -4.520287982894486e-05 1.5723990664211982e-05 0 -1.9143044507604192e-05 -6.6995281299038662e-06 0 -2.2782357328365501e-05 -1.384551871174408e-05 0 -1.9256625558476825e-05 -1.4663297604157143e-05 0 -1.8913010651980471e-05 -1.80923822314332e-05 0 -2.3164183650936418e-05 -3.1674982434234037e-05 0 -1.4896044752016867e-05 -3.3378416938869516e-05 0 -2.1883907523554254e-05 -1.9684364455543276e-05 0 -2.2782357328365501e-05 -1.384551871174408e-05 0 -2.4598159550420585e-05 -2.0114121708819676e-05 0 -2.5828719304890039e-05 -1.7959968016460229e-05 0 -2.4598159550420585e-05 -2.0114121708819676e-05 0 -2.2782357328365501e-05 -1.384551871174408e-05 0 -4.938266636628112e-05 -0.00014841115786437615 0 -4.0676519138230954e-05 -0.00014794809870391365 0 -4.1264007107441551e-05 -0.0001390806100141715 0 -6.1326784341139917e-05 0.00031830914978490997 0 -8.4629455336103748e-05 0.00031869598068870762 0 -8.2492209575922719e-05 0.00029645551227262888 0 -3.9437928112194068e-05 0.000317168689515123 0 -6.1326784341139917e-05 0.00031830914978490997 0 -4.0912276431650232e-05 0.00029601237982095546 0 -5.907502428366045e-05 -0.00014853908702788701 0 -4.938266636628112e-05 -0.00014841115786437615 0 -5.8157052022154148e-05 -0.00013897861618233768 0 -2.187605553856539e-05 3.2979577756564993e-05 0 -3.6839971528818905e-05 5.1603320328019637e-05 0 -3.6977175501060938e-05 3.5533113684224327e-05 0 -3.004114430351077e-05 -2.1815472909036001e-05 0 -3.2757415086862836e-05 -2.5608542050311899e-05 0 -3.0797878756826986e-05 -2.5889035222972097e-05 0 -2.1883907523554254e-05 -1.9684364455543276e-05 0 -2.4598159550420585e-05 -2.0114121708819676e-05 0 -2.2699650141916669e-05 -2.4248846787289911e-05 0 -2.6293450538079213e-05 -2.4073450646468206e-05 0 -2.2699650141916669e-05 -2.4248846787289911e-05 0 -2.4598159550420585e-05 -2.0114121708819676e-05 0 -2.8513880728355398e-05 -6.0456462923723929e-05 0 -2.6259134030653167e-05 -4.6016856264697867e-05 0 -3.499313140537296e-05 -5.7614532463875293e-05 0 -0.00010353602263670327 8.2129438723686923e-05 0 -7.5298081648896435e-05 6.5835760076230968e-05 0 -9.213131878599996e-05 9.1094919255845386e-05 0 -2.5347342203800964e-05 -1.3514290057421713e-05 0 -3.1033112972725202e-05 -1.9337750047273772e-05 0 -2.3979061234014155e-05 -1.55212882391946e-05 0 -2.7844081799399166e-05 -2.1707200099269857e-05 0 -2.3979061234014155e-05 -1.55212882391946e-05 0 -3.1033112972725202e-05 -1.9337750047273772e-05 0 -3.6470354604311892e-05 -3.7240263543012381e-05 0 -3.3164891360466336e-05 -3.6839444029599829e-05 0 -3.5357160641426438e-05 -3.5178493618144841e-05 0 -8.4090433120770263e-05 0.00013216753619046479 0 -0.00010342320635445063 0.00014717157760075979 0 -9.3780430377648612e-05 0.00011438306689433196 0 -2.9617117148720284e-05 -1.213276610698029e-05 0 -3.6416237829855736e-05 -1.696026930820279e-05 0 -3.0868996300885986e-05 -1.5315158094556054e-05 0 -3.7671526605014178e-05 -2.0747420090232535e-05 0 -3.0868996300885986e-05 -1.5315158094556054e-05 0 -3.6416237829855736e-05 -1.696026930820279e-05 0 -5.5828037335966561e-05 3.5248825904844175e-05 0 -5.5203115801651905e-05 2.7014230917391283e-05 0 -4.402150479806996e-05 2.4424453673310553e-05 0 -4.3569278974401349e-05 1.8212028803614026e-05 0 -4.402150479806996e-05 2.4424453673310553e-05 0 -5.5203115801651905e-05 2.7014230917391283e-05 0 -3.4329203425736823e-05 -2.9378215468915827e-05 0 -3.1695456620113202e-05 -2.9615996431021441e-05 0 -3.0797878756826986e-05 -2.5889035222972097e-05 0 -6.1466891785913355e-05 -4.2065529598930775e-05 0 -5.7003243331383305e-05 -4.574731984074469e-05 0 -4.8536766713473713e-05 -3.4913201436441803e-05 0 -2.085882761990369e-05 0.00012530263365172599 0 -3.5434597139852356e-05 0.00010032513465338303 0 -1.579941690993787e-05 9.5713495377310661e-05 0 -1.8567905863658458e-05 -2.5861619881939931e-06 0 -1.9957276844565111e-05 -5.840375481628165e-06 0 -2.2613515228436797e-05 -7.9543303446977944e-06 0 -6.1459644401250245e-06 2.4791613756852853e-06 0 -5.3183796212837995e-06 4.1801134871424154e-06 0 -4.6070299310050775e-06 2.7741613555953453e-06 0 -9.4629312820138857e-05 0.00021279069527711187 0 -7.665438479264328e-05 0.00022078630330347107 0 -0.0001006313049827379 0.00024325117162764012 0 -3.2486514852885775e-05 -9.877294355158289e-05 0 -4.0323083192057843e-05 -0.0001039860473728406 0 -3.2391009783044467e-05 -0.00011335544937974196 0 -1.9143044507604192e-05 -6.6995281299038662e-06 0 -2.1089461893662811e-05 -8.1211595105813731e-06 0 -2.2782357328365501e-05 -1.384551871174408e-05 0 -3.4411482705725183e-05 -3.939027752225021e-05 0 -3.3164891360466336e-05 -3.6839444029599829e-05 0 -3.6470354604311892e-05 -3.7240263543012381e-05 0 -2.6293450538079213e-05 -2.4073450646468206e-05 0 -2.8750036263981426e-05 -2.6275396459455985e-05 0 -2.6553042836783902e-05 -2.934823270014776e-05 0 -1.8020982908334966e-09 -3.8547044320406762e-10 0 -1.3648699831582684e-06 -5.3037360018980895e-07 0 -1.9770442727844579e-06 -8.4020642946220168e-07 0 -1.839437002598638e-09 2.8746489746135878e-10 0 -2.0216766540959522e-06 5.2272243563155968e-07 0 -1.5855853216203556e-06 5.4726880122528625e-07 0 -2.6259134030653167e-05 -4.6016856264697867e-05 0 -3.403472286511612e-05 -4.6326472667734478e-05 0 -3.499313140537296e-05 -5.7614532463875293e-05 0 -1.4895537096808937e-05 2.4580958714308194e-06 0 -1.6969605721514297e-05 4.6074014158704355e-06 0 -2.0413679062324085e-05 4.2219676154960957e-06 0 -3.0804706013922819e-05 2.04738444380759e-05 0 -3.6977175501060931e-05 3.5533113684224327e-05 0 -4.5478116673321829e-05 3.3464886034518429e-05 0 -2.1410098595237283e-06 -3.6190827063246136e-07 0 -1.161910815341943e-06 -2.3185783543015919e-07 0 -2.1100944191110698e-06 6.569303935841642e-08 0 -1.5378404315870247e-06 1.7480865335100225e-07 0 -2.1100944191110698e-06 6.569303935841642e-08 0 -1.161910815341943e-06 -2.3185783543015919e-07 0 -1.8890416170177205e-06 7.1760817354603568e-07 0 -1.4428025080835845e-06 5.9493731265540397e-07 0 -3.1057503117202569e-06 8.5910626017068667e-07 0 -2.7751895262536352e-06 7.673481197574625e-07 0 -3.1057503117202569e-06 8.5910626017068667e-07 0 -1.4428025080835845e-06 5.9493731265540397e-07 0 -2.6484381775256058e-05 1.1616653235751604e-05 0 -2.1721923312045605e-05 1.324728571913277e-05 0 -3.0804706013922819e-05 2.04738444380759e-05 0 -6.1459644401250245e-06 2.4791613756852853e-06 0 -7.4674836261823101e-06 3.7154892591743036e-06 0 -5.3183796212837995e-06 4.1801134871424154e-06 0 -5.2512989128014154e-06 2.3259601250457558e-06 0 -6.0615281200328834e-06 1.0593966161895062e-06 0 -4.0435472565549224e-06 5.6036159193532795e-07 0 -1.6969605721514297e-05 4.6074014158704355e-06 0 -1.1540931518424684e-05 2.2565178730816699e-06 0 -1.3601077936498008e-05 5.3274765261304388e-06 0 -1.0352465856943894e-05 3.1887239316685103e-06 0 -8.171959143588031e-06 6.0234775953034463e-06 0 -7.4674836261823101e-06 3.7154892591743032e-06 0 -1.1538256983776507e-05 -2.4980346778840478e-06 0 -1.2780951973748444e-05 -3.7729104463251953e-06 0 -9.6590133541912068e-06 -1.52767245164581e-06 0 -1.1314865575123531e-05 -3.0093180121161446e-06 0 -9.6590133541912068e-06 -1.52767245164581e-06 0 -1.2780951973748444e-05 -3.7729104463251953e-06 0 -4.8552399155128367e-09 3.2769550731744027e-10 0 -3.4161384016614444e-09 -8.7625672425585966e-10 0 -4.0525737099363392e-06 -7.7979990964832987e-08 0 -2.7196868443667085e-09 3.6563309589516389e-10 0 -3.6405817644269853e-09 -4.1296450922381571e-10 0 -3.0391143799220153e-06 -4.5211462764461795e-07 0 1.3862754983182658e-05 9.7282852139533003e-05 0 -1.579941690993787e-05 9.5713495377310661e-05 0 -1.0980117131495687e-05 7.0387650295497601e-05 0 -4.7063626814373028e-06 7.542358686067477e-07 0 -6.8708803237931206e-06 1.9458565625053653e-08 0 -4.8751755033301634e-06 9.1272050216662589e-07 0 -2.3454160067164611e-05 -1.0232829188014786e-05 0 -1.9165909806931575e-05 -7.8516302856903217e-06 0 -2.1445640610264087e-05 -1.2207463925743948e-05 0 -3.1114973089606899e-05 -3.9507919689565179e-05 0 -3.3164891360466336e-05 -3.6839444029599829e-05 0 -3.4411482705725183e-05 -3.939027752225021e-05 0 -2.5166797167456065e-05 -8.9612757723572487e-06 0 -2.4290430492981892e-05 -8.0646558735507243e-06 0 -2.0441573500673078e-05 -6.4315136697565043e-06 0 -3.7357447398241022e-05 1.0935106454551318e-05 0 -2.9878958654411951e-05 7.1426968752548079e-06 0 -3.6500344947104043e-05 1.0191326656869522e-05 0 -2.9261305807724687e-05 -2.968577803519554e-05 0 -2.6553042836783902e-05 -2.934823270014776e-05 0 -2.8750036263981426e-05 -2.6275396459455985e-05 0 -2.4290430492981892e-05 -8.0646558735507243e-06 0 -2.0505447642984611e-05 -6.3603713495405513e-06 0 -1.9588292579455664e-05 -5.7484351157070433e-06 0 -2.6184824430328546e-05 6.9487131618165244e-06 0 -2.3457891134005193e-05 7.5413283668174976e-06 0 -3.351318198849816e-05 1.082935764618963e-05 0 -2.5702139597948651e-05 -9.1771503585244545e-06 0 -2.0505447642984611e-05 -6.3603713495405513e-06 0 -2.4290430492981892e-05 -8.0646558735507243e-06 0 -8.7945649470034369e-06 -8.3792746865031491e-07 0 -1.0505386689265323e-05 -1.5646750064459376e-06 0 -1.1664068602492845e-05 -2.1725424958953829e-06 0 -8.307013817463077e-06 5.8653940326164034e-07 0 -1.1540931518424684e-05 2.2565178730816699e-06 0 -1.2022100116353297e-05 7.5178023542094428e-07 0 -3.5683753668132145e-05 1.6496360866718322e-05 0 -2.6484381775256058e-05 1.1616653235751604e-05 0 -3.0804706013922819e-05 2.04738444380759e-05 0 -3.4329203425736823e-05 -2.9378215468915827e-05 0 -3.0797878756826986e-05 -2.5889035222972097e-05 0 -3.2757415086862836e-05 -2.5608542050311899e-05 0 -2.398928392250192e-05 0.00021340631074453635 0 -1.8916440827002576e-05 0.00024245484726551311 0 -4.0677747595632878e-05 0.00023994331078560401 0 -6.2254217639862679e-05 -0.00010214329636141607 0 -6.6459142297937819e-05 -0.00011577773016899258 0 -5.6477837943238405e-05 -0.00011369614436703598 0 -2.1410098595237283e-06 -3.6190827063246136e-07 0 -1.3648699831582684e-06 -5.3037360018980895e-07 0 -1.161910815341943e-06 -2.3185783543015919e-07 0 -2.7751895262536352e-06 7.673481197574625e-07 0 -1.4428025080835843e-06 5.9493731265540397e-07 0 -1.5855853216203556e-06 5.4726880122528625e-07 0 -2.3207730623850508e-09 -5.652206409888727e-10 0 -1.9770442727844579e-06 -8.4020642946220168e-07 0 -2.2884489589727118e-06 -8.731653497727266e-07 0 -2.1680966362724362e-09 2.925003924212182e-10 0 -2.1050922389217217e-06 3.6355036359501178e-07 0 -2.0216766540959522e-06 5.2272243563155968e-07 0 -2.3454160067164611e-05 -1.0232829188014786e-05 0 -2.6768503365000938e-05 -1.3618830909634552e-05 0 -2.5979907692421087e-05 -1.2304566042760864e-05 0 -2.8436892077697563e-05 -1.5635905264778401e-05 0 -2.5979907692421087e-05 -1.2304566042760864e-05 0 -2.6768503365000938e-05 -1.3618830909634552e-05 0 -5.411841646114345e-05 0.00010740342233433558 0 -4.8486825002326731e-05 7.7965683333286944e-05 0 -3.5434597139852356e-05 0.00010032513465338303 0 -2.8768911315556546e-05 6.915865179604226e-05 0 -3.5434597139852363e-05 0.00010032513465338303 0 -4.8486825002326731e-05 7.7965683333286944e-05 0 -9.8946374901169189e-06 1.6616663286967842e-05 0 -6.6080235430049548e-06 1.1266952294088211e-05 0 -5.0785128052259489e-06 1.808645562386453e-05 0 -2.3454160067164611e-05 -1.0232829188014786e-05 0 -1.9957276844565111e-05 -5.840375481628165e-06 0 -1.9165909806931575e-05 -7.8516302856903217e-06 0 -2.9651689790962956e-06 8.3138185438867867e-07 0 -2.1538812235670687e-06 5.0606292567612795e-07 0 -2.7116815370794352e-06 9.930460892415097e-07 0 -3.004114430351077e-05 -2.1815472909036001e-05 0 -3.0797878756826986e-05 -2.5889035222972097e-05 0 -2.7819510436007697e-05 -2.203307800295351e-05 0 -7.5759610140858739e-05 0.00017135595112156333 0 -8.6222722363402021e-05 0.00015170329588455155 0 -6.6479986057758962e-05 0.00013622195426733332 0 -3.8299438863358367e-05 -3.4172881158544165e-05 0 -3.760920189120691e-05 -3.1301023212569112e-05 0 -3.9964684581044398e-05 -3.4965070844881795e-05 0 -2.7559038285436793e-05 -3.4085591614786291e-05 0 -2.9321871274237635e-05 -3.2669850089794736e-05 0 -2.9682416689269777e-05 -3.6854631150536426e-05 0 -7.3014372255151128e-06 -2.5403695429130165e-07 0 -4.8199642000732507e-06 5.9869604791804325e-07 0 -6.9699102532077372e-06 -1.3665948272851642e-07 0 -5.2320771580075189e-05 5.3906467708017391e-05 0 -3.6977175501060938e-05 3.5533113684224327e-05 0 -3.6839971528818905e-05 5.1603320328019637e-05 0 -9.9958424913341021e-06 -4.2206981681715439e-06 0 -1.4764811234481193e-05 -5.4829136263334613e-06 0 -8.9786485732540182e-06 -2.9437336212699165e-06 0 -2.0875100549119804e-05 5.8906996860339839e-06 0 -1.375535510382203e-05 4.5255683160484268e-06 0 -1.2450134770155542e-05 2.6299414923966852e-06 0 -2.1883907523554254e-05 -1.9684364455543276e-05 0 -1.9256625558476825e-05 -1.4663297604157143e-05 0 -2.2782357328365501e-05 -1.384551871174408e-05 0 -4.4595410183065579e-06 1.2576761888990773e-07 0 -7.4104200914498664e-06 -4.4682373471718599e-07 0 -4.3604798701217636e-06 3.9380085915596374e-07 0 -5.0913973034686558e-06 -9.6080001928624202e-07 0 -4.2206400839232834e-06 -1.0108634236402812e-06 0 -8.2073801492564437e-06 -4.1515169780983414e-07 0 -9.3027346293060364e-05 6.1598466094223833e-05 0 -7.1794959527046845e-05 4.8127425652637799e-05 0 -7.5298081648896435e-05 6.5835760076230968e-05 0 -5.5708016170800331e-05 -3.3029394472491298e-05 0 -4.8536766713473713e-05 -3.4913201436441803e-05 0 -4.5592408003860494e-05 -2.6596186092452067e-05 0 -2.187605553856539e-05 3.2979577756564993e-05 0 -9.6671815228241538e-06 2.4628013543043408e-05 0 -1.5649041354554027e-05 4.3898796796085897e-05 0 1.7809313724195714e-08 2.7235757950225067e-05 0 -1.5649041354554027e-05 4.3898796796085897e-05 0 -9.6671815228241538e-06 2.4628013543043408e-05 0 -2.9933688659149467e-05 -3.5929872600246469e-05 0 -3.7632715382180199e-05 -3.9653988549057623e-05 0 -3.403472286511612e-05 -4.6326472667734478e-05 0 -4.097932113996802e-05 -5.4246576221700111e-05 0 -3.403472286511612e-05 -4.6326472667734478e-05 0 -3.7632715382180199e-05 -3.9653988549057623e-05 0 -1.9143044507604192e-05 -6.6995281299038662e-06 0 -1.5106412970634783e-05 -2.1024763257245648e-07 0 -1.5611606721766323e-05 3.2485563565780599e-06 0 -3.1114973089606899e-05 -3.9507919689565179e-05 0 -3.4411482705725183e-05 -3.939027752225021e-05 0 -3.1846952075091691e-05 -4.1768412014539582e-05 0 -2.9651689790962956e-06 8.3138185438867867e-07 0 -4.0435472565549224e-06 5.6036159193532795e-07 0 -2.8792242553879736e-06 6.0354310085187876e-08 0 -3.1033112972725202e-05 -1.9337750047273772e-05 0 -3.9645023969546478e-05 -2.6117484248855361e-05 0 -3.3906863635795457e-05 -2.5312080465868338e-05 0 -2.8284901537748188e-05 -4.501270707596458e-05 0 -2.832404155294337e-05 -4.2136978351416568e-05 0 -2.9909557747158928e-05 -4.2330078816342087e-05 0 -7.5905712215816324e-05 9.0610119624372096e-05 0 -9.213131878599996e-05 9.1094919255845386e-05 0 -7.5298081648896435e-05 6.5835760076230968e-05 0 -0.0001006313049827379 0.00024325117162764012 0 -7.665438479264328e-05 0.00022078630330347107 0 -7.6329551313797316e-05 0.00024546519275300805 0 -3.2391009783044467e-05 -0.00011335544937974196 0 -4.0323083192057843e-05 -0.0001039860473728406 0 -4.1999360992510619e-05 -0.00011544135618221566 0 -8.7479814175427531e-06 -7.8959259693923678e-07 0 -8.1461462101172128e-06 2.9928088616118672e-07 0 -6.6786095109592283e-06 4.3022282866128009e-07 0 -2.8436892077697563e-05 -1.5635905264778401e-05 0 -2.6768503365000938e-05 -1.3618830909634552e-05 0 -3.0398644189018981e-05 -1.780888748126802e-05 0 -3.6873983007878709e-06 1.7343820562119808e-06 0 -4.6070299310050775e-06 2.7741613555953453e-06 0 -3.9006918371922338e-06 2.4978549952203249e-06 0 -4.5665281975758375e-06 3.8210533149310387e-06 0 -3.9006918371922338e-06 2.4978549952203249e-06 0 -4.6070299310050775e-06 2.7741613555953453e-06 0 -1.6969605721514297e-05 4.6074014158704355e-06 0 -2.3457891134005193e-05 7.5413283668174976e-06 0 -2.0413679062324085e-05 4.2219676154960957e-06 0 -4.097932113996802e-05 -5.4246576221700111e-05 0 -4.829355346475005e-05 -6.2365586669180619e-05 0 -4.4263295349234801e-05 -6.9814148664015837e-05 0 -2.2348041613330501e-05 4.0725997404976108e-06 0 -1.764434505542477e-05 2.3283444985387283e-06 0 -2.6856394695512867e-05 5.9551946097136714e-06 0 -3.1601386385580308e-05 0.00017006511220519113 0 -5.4500379726477668e-05 0.00019614349746926475 0 -5.8123431264623201e-05 0.00017299830122340448 0 -3.1601386385580308e-05 0.00017006511220519113 0 -5.8123431264623201e-05 0.00017299830122340448 0 -5.2443967461452502e-05 0.00014869828443564361 0 -7.5759610140858739e-05 0.00017135595112156333 0 -5.2443967461452502e-05 0.00014869828443564358 0 -5.8123431264623201e-05 0.00017299830122340448 0 -5.3709853013053025e-05 -8.1462059426975819e-05 0 -4.7659607781524801e-05 -9.3392325785378522e-05 0 -4.2739565513853849e-05 -8.0924780586086504e-05 0 -5.3709853013053025e-05 -8.1462059426975819e-05 0 -4.2739565513853849e-05 -8.0924780586086504e-05 0 -4.4263295349234801e-05 -6.9814148664015837e-05 0 -6.6080235430049548e-06 1.1266952294088211e-05 0 -5.7713225422888551e-06 1.2960792329033592e-05 0 -5.0785128052259489e-06 1.808645562386453e-05 0 -1.4678950335745068e-09 -2.9528991327668459e-10 0 -1.1296016384775939e-09 2.0918184978999438e-11 0 -1.161910815341943e-06 -2.3185783543015919e-07 0 -1.3466750606120945e-09 2.2783501755154449e-10 0 -1.6049587986511032e-09 3.0368251081020045e-10 0 -1.4428025080835845e-06 5.9493731265540397e-07 0 -6.8708803237931206e-06 1.9458565625053653e-08 0 -6.6786095109592283e-06 4.3022282866127998e-07 0 -4.8751755033301634e-06 9.1272050216662589e-07 0 -1.8913010651980471e-05 -1.80923822314332e-05 0 -1.8987454508900405e-05 -1.5467945714790231e-05 0 -2.2227624221494822e-05 -2.1912513888489036e-05 0 -1.764434505542477e-05 2.3283444985387283e-06 0 -2.0413679062324081e-05 4.2219676154960957e-06 0 -2.6856394695512867e-05 5.9551946097136714e-06 0 -1.1253919982173747e-09 1.7443353292607619e-10 0 -1.4291194818328854e-06 5.1237258444220036e-07 0 -9.1942100782400467e-07 1.8814198017895013e-07 0 -2.0875100549119804e-05 5.8906996860339839e-06 0 -1.7255431950958403e-05 3.0222876913698952e-06 0 -2.3968586029028115e-05 5.3844224613559661e-06 0 -1.4764811234481193e-05 -5.4829136263334613e-06 0 -1.6748035732802676e-05 -5.2382499238929515e-06 0 -1.2388631284092904e-05 -3.4970778887663088e-06 0 -4.987547862609021e-05 -4.5043833829275262e-05 0 -4.8536766713473713e-05 -3.4913201436441796e-05 0 -5.7003243331383305e-05 -4.574731984074469e-05 0 -2.506362894625534e-06 8.6415503737110565e-07 0 -1.8890416170177205e-06 7.1760817354603568e-07 0 -3.4192466217576746e-06 9.5645775780945311e-07 0 -3.4329203425736823e-05 -2.9378215468915827e-05 0 -3.760920189120691e-05 -3.1301023212569112e-05 0 -3.591357996664269e-05 -3.2222692925243311e-05 0 -1.0352465856943894e-05 3.1887239316685103e-06 0 -7.4674836261823101e-06 3.7154892591743032e-06 0 -9.5221705612935413e-06 1.7255199722709045e-06 0 -2.085882761990369e-05 0.00012530263365172599 0 -4.3577717017403079e-05 0.00012734636381909781 0 -3.5434597139852356e-05 0.00010032513465338303 0 -2.9651689790962956e-06 8.3138185438867867e-07 0 -2.1100944191110698e-06 6.569303935841642e-08 0 -2.1538812235670687e-06 5.0606292567612795e-07 0 -8.618238894666014e-05 0.0002711905629768968 0 -7.6329551313797316e-05 0.00024546519275300805 0 -5.910870766877375e-05 0.0002588788946049532 0 -3.9339276638690231e-05 -0.00012762677650567778 0 -4.1999360992510619e-05 -0.00011544135618221566 0 -4.9471405197538928e-05 -0.00012209900176286784 0 -1.8890416170177205e-06 7.1760817354603568e-07 0 -3.1057503117202569e-06 8.5910626017068667e-07 0 -3.4192466217576746e-06 9.5645775780945311e-07 0 -1.0352465856943894e-05 3.1887239316685103e-06 0 -1.2337916854544593e-05 3.0268212304406772e-08 0 -1.4454767802389038e-05 6.8002826844300543e-07 0 -3.643822631007631e-05 0.00027012467938782156 0 -4.0912276431650232e-05 0.00029601237982095546 0 -6.1208928499454447e-05 0.00028805772729602195 0 -8.618238894666014e-05 0.0002711905629768968 0 -6.1208928499454434e-05 0.00028805772729602189 0 -8.2492209575922719e-05 0.00029645551227262888 0 -5.9659128932195018e-05 -0.00012746740717747821 0 -5.8157052022154148e-05 -0.00013897861618233768 0 -4.9361006218481199e-05 -0.00013543886120170423 0 -3.9339276638690231e-05 -0.00012762677650567778 0 -4.9361006218481199e-05 -0.00013543886120170423 0 -4.1264007107441551e-05 -0.0001390806100141715 0 -3.0804706013922819e-05 2.04738444380759e-05 0 -4.5478116673321829e-05 3.3464886034518429e-05 0 -4.402150479806996e-05 2.4424453673310553e-05 0 -3.8569713530773694e-05 -3.0467044801108927e-05 0 -4.8536766713473713e-05 -3.4913201436441803e-05 0 -4.3461507713734318e-05 -3.862910046318308e-05 0 -4.987547862609021e-05 -4.5043833829275262e-05 0 -4.3461507713734318e-05 -3.862910046318308e-05 0 -4.8536766713473713e-05 -3.4913201436441803e-05 0 -7.5905712215816324e-05 9.0610119624372096e-05 0 -7.5298081648896435e-05 6.5835760076230968e-05 0 -6.2041586237233072e-05 7.527120181389851e-05 0 -5.2320771580075189e-05 5.3906467708017391e-05 0 -6.2041586237233072e-05 7.527120181389851e-05 0 -7.5298081648896435e-05 6.5835760076230968e-05 0 -2.7751895262536352e-06 7.673481197574625e-07 0 -3.4788302269815649e-06 6.6439538715047883e-07 0 -4.8199642000732507e-06 5.9869604791804325e-07 0 1.069305154966548e-05 6.7966491985448006e-05 0 1.3862754983182658e-05 9.7282852139533003e-05 0 -1.0980117131495687e-05 7.0387650295497601e-05 0 -5.0913973034686558e-06 -9.6080001928624202e-07 0 -7.9745272359482342e-06 -5.2360332586060087e-07 0 -5.2257131899301651e-06 -5.9758012396326694e-07 0 -4.4595410183065579e-06 1.2576761888990773e-07 0 -4.1221203206664514e-06 -2.2476244875409919e-07 0 -6.5035873584548202e-06 -4.9687039543485468e-07 0 -2.3454160067164611e-05 -1.0232829188014786e-05 0 -2.2613515228436797e-05 -7.9543303446977944e-06 0 -1.9957276844565111e-05 -5.840375481628165e-06 0 -7.4104200914498664e-06 -4.4682373471718599e-07 0 -6.7791131215851055e-06 -1.394381430399682e-07 0 -4.3604798701217636e-06 3.9380085915596374e-07 0 -8.2073801492564437e-06 -4.1515169780983414e-07 0 -4.2206400839232834e-06 -1.0108634236402812e-06 0 -6.5645478532403628e-06 -2.6296019312293956e-07 0 -2.6184824430328546e-05 6.9487131618165244e-06 0 -3.351318198849816e-05 1.082935764618963e-05 0 -2.6856394695512867e-05 5.9551946097136714e-06 0 -3.6500344947104043e-05 1.0191326656869522e-05 0 -2.6856394695512867e-05 5.9551946097136714e-06 0 -3.351318198849816e-05 1.082935764618963e-05 0 -3.643822631007631e-05 0.00027012467938782156 0 -4.0677747595632878e-05 0.00023994331078560401 0 -1.8916440827002576e-05 0.00024245484726551311 0 -5.9659128932195018e-05 -0.00012746740717747821 0 -5.6477837943238405e-05 -0.00011369614436703598 0 -6.6459142297937832e-05 -0.00011577773016899258 0 -2.8284901537748188e-05 -4.501270707596458e-05 0 -2.7396262401883269e-05 -4.4705939328332225e-05 0 -2.7183119537169636e-05 -4.3644506360918769e-05 0 -3.7609750150238597e-05 -4.2728093982460697e-05 0 -3.3579064770576386e-05 -4.33035765326921e-05 0 -3.7714959106641687e-05 -3.9771489961121543e-05 0 -1.4220744144313841e-05 -4.0967470190942321e-06 0 -1.1538256983776507e-05 -2.4980346778840478e-06 0 -1.1664068602492845e-05 -2.1725424958953829e-06 0 -4.193841861053109e-05 -3.8271879699868079e-05 0 -4.0695302404748882e-05 -3.6989986071444368e-05 0 -3.9964684581044398e-05 -3.4965070844881795e-05 0 -1.9204958118725252e-05 -2.8442903237594741e-05 0 -2.0450199008350176e-05 -3.0029690474332793e-05 0 -2.3323126626523205e-05 -3.5403013222112315e-05 0 -2.7245209942926729e-05 -3.7433659569581371e-05 0 -2.5421450160800345e-05 -3.7119314975008364e-05 0 -2.4914211790477085e-05 -3.3019856152668356e-05 0 -3.7671526605014178e-05 -2.0747420090232535e-05 0 -3.9645023969546478e-05 -2.6117484248855361e-05 0 -3.1033112972725202e-05 -1.9337750047273772e-05 0 -3.3579064770576386e-05 -4.33035765326921e-05 0 -3.1846952075091691e-05 -4.1768412014539582e-05 0 -3.4411482705725183e-05 -3.939027752225021e-05 0 -4.3569278974401349e-05 1.8212028803614026e-05 0 -3.351318198849816e-05 1.082935764618963e-05 0 -3.5683753668132145e-05 1.6496360866718322e-05 0 -8.1461462101172128e-06 2.9928088616118667e-07 0 -6.3461003161648131e-06 1.2672853592411114e-06 0 -6.6786095109592283e-06 4.3022282866128009e-07 0 -3.8569713530773694e-05 -3.0467044801108927e-05 0 -3.7632715382180199e-05 -3.9653988549057623e-05 0 -3.2655406654507395e-05 -2.986017992205647e-05 0 -2.9933688659149467e-05 -3.5929872600246469e-05 0 -3.2655406654507395e-05 -2.986017992205647e-05 0 -3.7632715382180199e-05 -3.9653988549057623e-05 0 -1.5265434527049461e-05 -4.1464384019711433e-06 0 -1.4220744144313841e-05 -4.0967470190942321e-06 0 -1.1664068602492845e-05 -2.1725424958953829e-06 0 -3.8569713530773694e-05 -3.0467044801108927e-05 0 -3.3906863635795457e-05 -2.5312080465868338e-05 0 -3.9645023969546478e-05 -2.6117484248855361e-05 0 -1.3136163427930473e-05 -2.7475887998639667e-06 0 -1.5265434527049461e-05 -4.1464384019711433e-06 0 -1.1664068602492845e-05 -2.1725424958953829e-06 0 -8.307013817463077e-06 5.8653940326164034e-07 0 -7.6453286792021824e-06 2.1920501538659202e-06 0 -1.1540931518424684e-05 2.2565178730816699e-06 0 -3.8569713530773694e-05 -3.0467044801108927e-05 0 -3.9645023969546478e-05 -2.6117484248855361e-05 0 -4.8536766713473713e-05 -3.4913201436441803e-05 0 -5.2320771580075189e-05 5.3906467708017391e-05 0 -7.5298081648896435e-05 6.5835760076230968e-05 0 -5.9835393725183884e-05 4.6558541125224589e-05 0 -3.4161384016614444e-09 -8.7625672425585966e-10 0 -2.5061304795371228e-06 -6.9142612655884626e-07 0 -5.2257131899301651e-06 -5.9758012396326694e-07 0 -2.7196868443667085e-09 3.6563309589516389e-10 0 -4.1221203206664514e-06 -2.2476244875409919e-07 0 -2.1045565493727283e-06 1.5210313784420906e-07 0 -1.3136163427930473e-05 -2.7475887998639667e-06 0 -1.1664068602492845e-05 -2.1725424958953829e-06 0 -1.0505386689265323e-05 -1.5646750064459376e-06 0 -1.4895537096808937e-05 2.4580958714308194e-06 0 -1.2022100116353297e-05 7.5178023542094428e-07 0 -1.1540931518424684e-05 2.2565178730816699e-06 0 -4.7124021234357046e-06 -6.0174811870098991e-07 0 -3.2103888559879429e-06 -6.5987909668157798e-07 0 -5.1120434427381276e-06 4.791993722698976e-08 0 -2.2227624221494822e-05 -2.1912513888489036e-05 0 -2.7465653332974301e-05 -2.6316943384781979e-05 0 -2.3164183650936418e-05 -3.1674982434234037e-05 0 -2.9651689790962956e-06 8.3138185438867867e-07 0 -2.7116815370794352e-06 9.9304608924150991e-07 0 -3.2506049553526416e-06 1.4802603560593131e-06 0 -8.618238894666014e-05 0.0002711905629768968 0 -0.0001006313049827379 0.00024325117162764012 0 -7.6329551313797316e-05 0.00024546519275300805 0 -3.9339276638690231e-05 -0.00012762677650567778 0 -3.2391009783044467e-05 -0.00011335544937974196 0 -4.1999360992510619e-05 -0.00011544135618221566 0 -8.7945649470034369e-06 -8.3792746865031491e-07 0 -7.4104200914498664e-06 -4.4682373471718599e-07 0 -1.0505386689265323e-05 -1.5646750064459376e-06 0 -8.307013817463077e-06 5.8653940326164034e-07 0 -1.2022100116353297e-05 7.5178023542094428e-07 0 -8.2073801492564437e-06 -4.1515169780983414e-07 0 -2.3590035917476897e-06 8.4653613299670839e-07 0 -3.5010200641378338e-06 1.0947084313406011e-06 0 -3.2290070029020839e-06 1.2313321214704786e-06 0 -2.7465653332974301e-05 -2.6316943384781979e-05 0 -2.9933688659149467e-05 -3.5929872600246469e-05 0 -2.3164183650936418e-05 -3.1674982434234037e-05 0 -0.00013021642495245853 0.00018750219344351507 0 -0.00012641119227582294 0.00015959473610035755 0 -0.00010224659108612275 0.00017234375088424336 0 -1.4187909577900773e-05 -7.0036988862127346e-05 0 -2.570444890350839e-05 -7.862194933556573e-05 0 -1.5330003684631678e-05 -8.2946659690039549e-05 0 -5.3709853013053025e-05 -8.1462059426975819e-05 0 -4.4263295349234801e-05 -6.9814148664015823e-05 0 -5.2382522453139441e-05 -7.0449448254512355e-05 0 -1.5927334423068406e-05 -3.356271014689387e-06 0 -1.9165909806931575e-05 -7.8516302856903217e-06 0 -1.9957276844565111e-05 -5.840375481628165e-06 0 -2.2348041613330501e-05 4.0725997404976108e-06 0 -1.72554319509584e-05 3.0222876913698948e-06 0 -1.640684335744327e-05 2.0073244606747821e-06 0 -1.6068022843099468e-05 -4.2928791481286272e-06 0 -1.2216111776024468e-05 -2.7851570989193391e-06 0 -1.2388631284092904e-05 -3.4970778887663088e-06 0 -7.4048532499759608e-06 7.264179811228225e-06 0 -7.1723503824938286e-06 4.1752230226887557e-06 0 -5.2654134282289594e-06 4.8443744997038578e-06 0 -2.3590035917476897e-06 8.4653613299670839e-07 0 -2.506362894625534e-06 8.6415503737110565e-07 0 -3.5010200641378338e-06 1.0947084313406011e-06 0 -2.8436892077697563e-05 -1.5635905264778401e-05 0 -3.1630119174533571e-05 -2.0320205861576153e-05 0 -2.8861540189166073e-05 -1.7596171306343275e-05 0 -2.2348041613330501e-05 4.0725997404976108e-06 0 -2.3968586029028115e-05 5.3844224613559661e-06 0 -1.7255431950958403e-05 3.0222876913698952e-06 0 -1.6068022843099468e-05 -4.2928791481286272e-06 0 -1.2388631284092902e-05 -3.4970778887663084e-06 0 -1.6748035732802676e-05 -5.2382499238929523e-06 0 -1.0352465856943894e-05 3.1887239316685103e-06 0 -9.5221705612935413e-06 1.7255199722709045e-06 0 -1.2337916854544593e-05 3.0268212304406772e-08 0 -4.7969924375662943e-05 -0.00010823340548684699 0 -4.7659607781524801e-05 -9.3392325785378522e-05 0 -5.3885763346479312e-05 -0.000101531683060749 0 -5.9181331314946196e-05 0.00022925198995022358 0 -5.4500379726477675e-05 0.00019614349746926475 0 -4.2892995016818595e-05 0.00021364909546202433 0 -3.7671526605014178e-05 -2.0747420090232535e-05 0 -3.1033112972725202e-05 -1.9337750047273772e-05 0 -3.0868996300885986e-05 -1.5315158094556054e-05 0 -2.5347342203800964e-05 -1.3514290057421713e-05 0 -3.0868996300885986e-05 -1.531515809455605e-05 0 -3.1033112972725202e-05 -1.9337750047273772e-05 0 -1.4282211679122225e-05 -6.5752524162490257e-06 0 -1.6601605703751731e-05 -8.8227751703910615e-06 0 -1.6631756543860196e-05 -1.0559096670961653e-05 0 -1.9466654903407108e-05 -1.3059176423827944e-05 0 -1.6631756543860196e-05 -1.0559096670961653e-05 0 -1.6601605703751731e-05 -8.8227751703910615e-06 0 -1.9770442727844579e-06 -8.4020642946220168e-07 0 -3.2103888559879429e-06 -6.5987909668157798e-07 0 -4.2206400839232834e-06 -1.0108634236402812e-06 0 -4.7124021234357046e-06 -6.0174811870098991e-07 0 -4.2206400839232834e-06 -1.0108634236402812e-06 0 -3.2103888559879429e-06 -6.5987909668157798e-07 0 -5.2756258705106524e-06 3.2449544938285787e-07 0 -3.4788302269815649e-06 6.6439538715047883e-07 0 -4.3604798701217636e-06 3.9380085915596374e-07 0 -2.0216766540959522e-06 5.2272243563155968e-07 0 -4.3604798701217636e-06 3.9380085915596374e-07 0 -3.4788302269815649e-06 6.6439538715047883e-07 0 -3.4329203425736823e-05 -2.9378215468915827e-05 0 -3.380783029411626e-05 -3.2480490961598532e-05 0 -3.1695456620113202e-05 -2.9615996431021441e-05 0 -1.5927334423068406e-05 -3.356271014689387e-06 0 -1.4454767802389038e-05 6.8002826844300543e-07 0 -1.2337916854544593e-05 3.0268212304406772e-08 0 -4.5665281975758375e-06 3.8210533149310387e-06 0 -4.5418464453014922e-06 3.3394354844480289e-06 0 -3.9006918371922338e-06 2.4978549952203249e-06 0 -3.1601386385580308e-05 0.00017006511220519113 0 -3.3369367211312808e-05 0.00019646246935984171 0 -5.4500379726477668e-05 0.00019614349746926475 0 -5.3709853013053025e-05 -8.1462059426975819e-05 0 -5.6545112674771519e-05 -9.3227310771943614e-05 0 -4.7659607781524801e-05 -9.3392325785378522e-05 0 -3.1601386385580308e-05 0.00017006511220519113 0 -5.2443967461452502e-05 0.00014869828443564361 0 -3.2252478436741561e-05 0.00014428531776836145 0 -7.4048532499759608e-06 7.264179811228225e-06 0 -1.0412893549595357e-05 6.4519099457194596e-06 0 -7.1723503824938286e-06 4.1752230226887557e-06 0 -7.4048532499759608e-06 7.264179811228225e-06 0 -1.0512830859095214e-05 1.110928052432491e-05 0 -1.0412893549595357e-05 6.4519099457194596e-06 0 -5.411841646114345e-05 0.00010740342233433558 0 -4.3577717017403072e-05 0.00012734636381909781 0 -6.6479986057758962e-05 0.00013622195426733332 0 -5.2443967461452502e-05 0.00014869828443564361 0 -6.6479986057758962e-05 0.00013622195426733332 0 -4.3577717017403072e-05 0.00012734636381909781 0 -8.38674807646696e-06 6.1605034043415402e-07 0 -5.2257131899301651e-06 -5.9758012396326684e-07 0 -9.3069774263285447e-06 3.494476387147943e-08 0 -6.2245305429581725e-06 -1.3302223398746122e-06 0 -7.182082108119004e-06 -1.0187592470975132e-06 0 -4.1221203206664514e-06 -2.2476244875409919e-07 0 -2.9933688659149467e-05 -3.5929872600246469e-05 0 -3.403472286511612e-05 -4.6326472667734478e-05 0 -2.6259134030653167e-05 -4.6016856264697867e-05 0 -4.193841861053109e-05 -3.8271879699868079e-05 0 -4.2917664921052567e-05 -4.0795558336214317e-05 0 -4.0695302404748882e-05 -3.6989986071444368e-05 0 -1.9204958118725252e-05 -2.8442903237594741e-05 0 -2.3323126626523205e-05 -3.5403013222112315e-05 0 -2.1308604464426344e-05 -3.2005562083060092e-05 0 -1.0228595676690695e-05 -2.1704351088644263e-07 0 -1.2337916854544593e-05 3.0268212304406772e-08 0 -9.5221705612935413e-06 1.7255199722709045e-06 0 -4.5665281975758375e-06 3.8210533149310387e-06 0 -5.2860358907045673e-06 6.1862734489998985e-06 0 -5.2654134282289594e-06 4.8443744997038578e-06 0 -3.1114973089606899e-05 -3.9507919689565179e-05 0 -2.9682416689269777e-05 -3.6854631150536426e-05 0 -3.3164891360466336e-05 -3.6839444029599829e-05 0 -3.1324337436459153e-05 -3.4786395389823254e-05 0 -3.3164891360466336e-05 -3.6839444029599829e-05 0 -2.9682416689269777e-05 -3.6854631150536426e-05 0 -2.6293450538079213e-05 -2.4073450646468206e-05 0 -2.6553042836783902e-05 -2.934823270014776e-05 0 -2.2699650141916669e-05 -2.4248846787289911e-05 0 -8.618238894666014e-05 0.0002711905629768968 0 -0.00011049185155755228 0.00026847201914791807 0 -0.0001006313049827379 0.00024325117162764012 0 -3.9339276638690231e-05 -0.00012762677650567778 0 -3.0192807070104224e-05 -0.00012492456578053906 0 -3.2391009783044467e-05 -0.00011335544937974196 0 -3.9710628746553124e-05 -3.7907876029597829e-05 0 -4.2074974349032294e-05 -4.037622605934413e-05 0 -3.7714959106641687e-05 -3.9771489961121543e-05 0 -2.5777572677331633e-05 -4.0215132600058138e-05 0 -2.7183119537169636e-05 -4.3644506360918769e-05 0 -2.5898516606181382e-05 -4.1252602493391261e-05 0 -3.643822631007631e-05 0.00027012467938782156 0 -5.910870766877375e-05 0.0002588788946049532 0 -4.0677747595632878e-05 0.00023994331078560401 0 -5.9659128932195018e-05 -0.00012746740717747821 0 -4.9471405197538928e-05 -0.00012209900176286784 0 -5.6477837943238405e-05 -0.00011369614436703598 0 -2.3590035917476897e-06 8.4653613299670839e-07 0 -3.2290070029020839e-06 1.2313321214704786e-06 0 -2.7116815370794352e-06 9.930460892415097e-07 0 -3.6873983007878709e-06 1.7343820562119808e-06 0 -2.7116815370794352e-06 9.930460892415097e-07 0 -3.2290070029020839e-06 1.2313321214704786e-06 0 -2.398928392250192e-05 0.00021340631074453635 0 -4.0677747595632878e-05 0.00023994331078560401 0 -4.2892995016818595e-05 0.00021364909546202433 0 -6.2254217639862679e-05 -0.00010214329636141607 0 -5.6477837943238405e-05 -0.00011369614436703598 0 -5.3885763346479312e-05 -0.000101531683060749 0 -5.0913973034686558e-06 -9.6080001928624202e-07 0 -5.2257131899301659e-06 -5.9758012396326684e-07 0 -2.5061304795371228e-06 -6.9142612655884626e-07 0 -4.4595410183065579e-06 1.2576761888990773e-07 0 -2.1045565493727283e-06 1.5210313784420906e-07 0 -4.1221203206664514e-06 -2.2476244875409919e-07 0 -2.8768911315556546e-05 6.915865179604226e-05 0 -1.579941690993787e-05 9.5713495377310661e-05 0 -3.5434597139852356e-05 0.00010032513465338303 0 -8.38674807646696e-06 6.1605034043415402e-07 0 -4.0525737099363392e-06 -7.7979990964832987e-08 0 -5.2257131899301651e-06 -5.9758012396326694e-07 0 -6.2245305429581725e-06 -1.3302223398746122e-06 0 -4.1221203206664514e-06 -2.2476244875409919e-07 0 -3.0391143799220153e-06 -4.5211462764461795e-07 0 -0.00013354163478023121 0.00024261601230638093 0 -0.0001136387117546687 0.00022316284151061494 0 -0.0001006313049827379 0.00024325117162764012 0 -1.8899020777493827e-05 -0.00010939922499896826 0 -2.5551070651050971e-05 -0.00010230572289307493 0 -3.2391009783044467e-05 -0.00011335544937974196 0 -2.187605553856539e-05 3.2979577756564993e-05 0 -3.6977175501060938e-05 3.5533113684224327e-05 0 -2.4325599093603531e-05 2.4621595709872859e-05 0 -3.0804706013922819e-05 2.04738444380759e-05 0 -2.4325599093603531e-05 2.4621595709872859e-05 0 -3.6977175501060938e-05 3.5533113684224327e-05 0 -4.097932113996802e-05 -5.4246576221700111e-05 0 -3.7632715382180199e-05 -3.9653988549057623e-05 0 -4.4168727219822536e-05 -4.5935405271261001e-05 0 -1.9143044507604192e-05 -6.6995281299038662e-06 0 -1.9256625558476825e-05 -1.4663297604157143e-05 0 -1.5680673870648053e-05 -9.8461454985110532e-06 0 -5.411841646114345e-05 0.00010740342233433558 0 -6.2690411710763353e-05 9.2147640908662131e-05 0 -4.8486825002326731e-05 7.7965683333286944e-05 0 -5.2320771580075189e-05 5.3906467708017391e-05 0 -4.8486825002326731e-05 7.7965683333286944e-05 0 -6.2041586237233072e-05 7.527120181389851e-05 0 -3.8569713530773694e-05 -3.0467044801108927e-05 0 -4.3461507713734318e-05 -3.862910046318308e-05 0 -3.7632715382180199e-05 -3.9653988549057623e-05 0 -2.9933688659149467e-05 -3.5929872600246469e-05 0 -2.6259134030653167e-05 -4.6016856264697867e-05 0 -2.3164183650936418e-05 -3.1674982434234037e-05 0 -3.8299438863358367e-05 -3.4172881158544165e-05 0 -3.9964684581044398e-05 -3.4965070844881795e-05 0 -4.0695302404748882e-05 -3.6989986071444368e-05 0 -2.3391554715447726e-05 -3.3581931829844998e-05 0 -2.3323126626523205e-05 -3.5403013222112315e-05 0 -2.0450199008350176e-05 -3.0029690474332793e-05 0 -1.8567905863658458e-05 -2.5861619881939931e-06 0 -2.2613515228436797e-05 -7.9543303446977944e-06 0 -2.0557969343063201e-05 -5.0374951915259173e-06 0 -2.3454160067164611e-05 -1.0232829188014786e-05 0 -2.5979907692421087e-05 -1.2304566042760864e-05 0 -2.2613515228436797e-05 -7.9543303446977944e-06 0 -8.9409450567185044e-06 8.3789420126360666e-06 0 -8.171959143588031e-06 6.0234775953034463e-06 0 -1.1881194261084573e-05 4.7827613252623163e-06 0 -2.2227624221494822e-05 -2.1912513888489036e-05 0 -1.8987454508900405e-05 -1.5467945714790231e-05 0 -2.2970244747295684e-05 -1.8426198284246633e-05 0 -3.643822631007631e-05 0.00027012467938782156 0 -1.8916440827002576e-05 0.00024245484726551311 0 -1.3605606152626218e-05 0.00026588289805903268 0 -5.9659128932195018e-05 -0.00012746740717747821 0 -6.6459142297937832e-05 -0.00011577773016899258 0 -7.021989827944818e-05 -0.00012673343711252789 0 -1.0352465856943894e-05 3.1887239316685103e-06 0 -1.1881194261084573e-05 4.7827613252623163e-06 0 -8.171959143588031e-06 6.0234775953034463e-06 0 -1.8602820481048394e-05 -2.272007527703637e-05 0 -2.2699650141916669e-05 -2.4248846787289911e-05 0 -2.0373200872886348e-05 -2.6196117495871127e-05 0 -3.1324337436459153e-05 -3.4786395389823254e-05 0 -2.9682416689269777e-05 -3.6854631150536426e-05 0 -2.9321871274237635e-05 -3.2669850089794736e-05 0 -6.2662975967975262e-06 5.6554909668215364e-06 0 -7.4674836261823092e-06 3.7154892591743032e-06 0 -8.171959143588031e-06 6.0234775953034463e-06 0 -2.1410098595237283e-06 -3.6190827063246136e-07 0 -2.8792242553879736e-06 6.0354310085187876e-08 0 -3.2103888559879429e-06 -6.5987909668157798e-07 0 -6.6939696875824723e-05 -5.2646493482634175e-05 0 -7.1393805879903593e-05 -6.422922015866243e-05 0 -5.875235464360672e-05 -5.5685864720238108e-05 0 -8.307013817463077e-06 5.8653940326164034e-07 0 -6.5645478532403628e-06 -2.6296019312293956e-07 0 -5.1120434427381276e-06 4.791993722698976e-08 0 -3.9006918371922338e-06 2.4978549952203249e-06 0 -4.5418464453014922e-06 3.3394354844480289e-06 0 -3.7790800053282458e-06 1.7367997923469469e-06 0 -1.0352465856943894e-05 3.1887239316685103e-06 0 -1.4454767802389038e-05 6.8002826844300543e-07 0 -1.1881194261084573e-05 4.7827613252623163e-06 0 -0.00012072457829088599 0.00013204972608191231 0 -0.0001132628171739383 0.00010611077959511723 0 -9.3780430377648612e-05 0.00011438306689433196 0 -1.8890416170177205e-06 7.1760817354603568e-07 0 -1.4291194818328854e-06 5.1237258444220036e-07 0 -7.6971760859730756e-07 3.3247173439639194e-07 0 -5.2512989128014154e-06 2.3259601250457558e-06 0 -5.2654134282289594e-06 4.8443744997038578e-06 0 -7.1723503824938286e-06 4.1752230226887557e-06 0 -3.004114430351077e-05 -2.1815472909036001e-05 0 -3.166195245463077e-05 -2.1930641695987412e-05 0 -3.2757415086862836e-05 -2.5608542050311899e-05 0 -5.3709853013053025e-05 -8.1462059426975819e-05 0 -6.2022323021442599e-05 -7.5837113412549628e-05 0 -6.5192499072347354e-05 -8.9454270273720655e-05 0 -8.307013817463077e-06 5.8653940326164034e-07 0 -5.1120434427381276e-06 4.791993722698976e-08 0 -6.0615281200328825e-06 1.059396616189506e-06 0 -2.3590035917476897e-06 8.4653613299670839e-07 0 -1.6725052380227721e-06 4.3745452716016302e-07 0 -1.4291194818328854e-06 5.1237258444220036e-07 0 -9.7715673173784642e-06 3.8066510792215817e-06 0 -7.1723503824938286e-06 4.1752230226887557e-06 0 -1.0412893549595357e-05 6.4519099457194596e-06 0 -3.1630119174533571e-05 -2.0320205861576153e-05 0 -3.166195245463077e-05 -2.1930641695987412e-05 0 -2.8861540189166073e-05 -1.7596171306343275e-05 0 -3.8299438863358367e-05 -3.4172881158544165e-05 0 -3.7914323607384606e-05 -3.5563206432924653e-05 0 -3.591357996664269e-05 -3.2222692925243311e-05 0 -2.6184824430328546e-05 6.9487131618165244e-06 0 -2.0413679062324085e-05 4.2219676154960957e-06 0 -2.3457891134005193e-05 7.5413283668174976e-06 0 1.069154831393346e-05 0.00023399742436771103 0 -1.8916440827002576e-05 0.00024245484726551311 0 -5.8032597031184567e-06 0.00022054917059179888 0 -8.0115981732055799e-05 -0.00011477934960284229 0 -6.6459142297937832e-05 -0.00011577773016899258 0 -7.121450729247265e-05 -0.00010671165250754068 0 -3.2506049553526416e-06 1.4802603560593131e-06 0 -3.7790800053282458e-06 1.7367997923469469e-06 0 -2.9651689790962956e-06 8.3138185438867867e-07 0 -3.9006918371922338e-06 2.4978549952203249e-06 0 -3.7790800053282458e-06 1.7367997923469469e-06 0 -3.2506049553526416e-06 1.4802603560593131e-06 0 -9.4629312820138857e-05 0.00021279069527711187 0 -0.0001006313049827379 0.00024325117162764012 0 -0.0001136387117546687 0.00022316284151061494 0 -3.2486514852885775e-05 -9.877294355158289e-05 0 -3.2391009783044467e-05 -0.00011335544937974197 0 -2.5551070651050971e-05 -0.00010230572289307493 0 -3.6873983007878709e-06 1.7343820562119808e-06 0 -5.1013730003946075e-06 1.8356056694904145e-06 0 -4.6070299310050775e-06 2.7741613555953453e-06 0 -6.1459644401250245e-06 2.4791613756852853e-06 0 -4.6070299310050775e-06 2.7741613555953453e-06 0 -5.1013730003946075e-06 1.8356056694904145e-06 0 -3.6873983007878709e-06 1.7343820562119808e-06 0 -3.2506049553526416e-06 1.4802603560593131e-06 0 -2.7116815370794352e-06 9.930460892415097e-07 0 -1.6068022843099468e-05 -4.2928791481286272e-06 0 -1.6396060997868557e-05 -4.2098711962347834e-06 0 -1.2649462683262031e-05 -2.587427229695727e-06 0 -1.6589429977706106e-05 -6.906044392295261e-06 0 -2.0275173997848371e-05 -1.103003893230854e-05 0 -1.6601605703751731e-05 -8.8227751703910615e-06 0 -1.9466654903407108e-05 -1.3059176423827944e-05 0 -1.6601605703751731e-05 -8.8227751703910615e-06 0 -2.0275173997848371e-05 -1.103003893230854e-05 0 -1.6068022843099468e-05 -4.2928791481286272e-06 0 -1.2649462683262031e-05 -2.587427229695727e-06 0 -1.2216111776024468e-05 -2.7851570989193391e-06 0 -2.8768911315556546e-05 6.915865179604226e-05 0 -1.0980117131495687e-05 7.0387650295497601e-05 0 -1.579941690993787e-05 9.5713495377310661e-05 0 -5.9181331314946196e-05 0.00022925198995022358 0 -5.9108707668773743e-05 0.0002588788946049532 0 -7.6329551313797316e-05 0.00024546519275300805 0 -4.7969924375662943e-05 -0.00010823340548684699 0 -4.9471405197538928e-05 -0.00012209900176286784 0 -4.1999360992510619e-05 -0.00011544135618221566 0 -8.7479814175427531e-06 -7.8959259693923678e-07 0 -6.8708803237931206e-06 1.9458565625053484e-08 0 -8.9944130686570047e-06 -1.2275264521832691e-06 0 -1.1253919982173747e-09 1.7443353292607619e-10 0 -7.6971760859730756e-07 3.3247173439639194e-07 0 -1.4291194818328854e-06 5.1237258444220036e-07 0 -7.4048532499759608e-06 7.264179811228225e-06 0 -6.6080235430049548e-06 1.1266952294088211e-05 0 -1.0512830859095214e-05 1.110928052432491e-05 0 -2.3542397004497862e-05 -2.9079827386581249e-05 0 -2.2699650141916669e-05 -2.4248846787289911e-05 0 -2.6553042836783902e-05 -2.934823270014776e-05 0 -2.6293450538079213e-05 -2.4073450646468206e-05 0 -2.7819510436007697e-05 -2.203307800295351e-05 0 -2.8750036263981426e-05 -2.6275396459455985e-05 0 -3.5010200641378338e-06 1.0947084313406011e-06 0 -4.8751755033301634e-06 9.1272050216662589e-07 0 -4.2150788022158923e-06 1.3177595408938602e-06 0 -4.987547862609021e-05 -4.5043833829275262e-05 0 -5.875235464360672e-05 -5.5685864720238108e-05 0 -4.8227197684262153e-05 -5.4311078331808693e-05 0 -5.5945842082114495e-05 -6.3483384055494006e-05 0 -4.8227197684262153e-05 -5.4311078331808693e-05 0 -5.875235464360672e-05 -5.5685864720238108e-05 0 -1.1061514828277185e-09 -4.5773631084143361e-11 0 -1.1253919982174249e-09 1.7443353292608645e-10 0 -9.1942100782400467e-07 1.8814198017895013e-07 0 -8.4090433120770263e-05 0.00013216753619046479 0 -9.3780430377648612e-05 0.00011438306689433196 0 -7.2665371427065763e-05 0.00011162138597317599 0 -7.5905712215816324e-05 9.0610119624372096e-05 0 -7.2665371427065763e-05 0.00011162138597317599 0 -9.3780430377648612e-05 0.00011438306689433196 0 -3.9710628746553124e-05 -3.7907876029597829e-05 0 -3.7914323607384606e-05 -3.5563206432924653e-05 0 -4.0695302404748882e-05 -3.6989986071444368e-05 0 -2.5777572677331633e-05 -4.0215132600058138e-05 0 -2.3323126626523205e-05 -3.5403013222112315e-05 0 -2.5421450160800345e-05 -3.7119314975008364e-05 0 -1.5268120421333644e-05 9.5671817321100396e-06 0 -1.0412893549595357e-05 6.4519099457194596e-06 0 -1.0512830859095214e-05 1.110928052432491e-05 0 -3.5357160641426438e-05 -3.5178493618144841e-05 0 -3.3226857022174802e-05 -3.4485467615371263e-05 0 -3.380783029411626e-05 -3.2480490961598532e-05 0 -6.5911084735908851e-06 1.4534304531679413e-05 0 -6.8445279068956464e-06 1.8535427130123525e-05 0 -5.0785128052259489e-06 1.808645562386453e-05 0 -8.307013817463077e-06 5.8653940326164034e-07 0 -6.0615281200328825e-06 1.059396616189506e-06 0 -7.6453286792021824e-06 2.1920501538659202e-06 0 -3.0804706013922819e-05 2.04738444380759e-05 0 -1.7645146010532669e-05 1.6113284183420736e-05 0 -2.4325599093603531e-05 2.4621595709872859e-05 0 1.3862754983182658e-05 9.7282852139533003e-05 0 -2.4319054754829287e-06 0.00011607018168247995 0 -1.579941690993787e-05 9.5713495377310661e-05 0 -8.7479814175427531e-06 -7.8959259693923678e-07 0 -6.6786095109592283e-06 4.3022282866128004e-07 0 -6.8708803237931206e-06 1.9458565625053653e-08 0 -5.9181331314946196e-05 0.00022925198995022358 0 -4.0677747595632878e-05 0.00023994331078560401 0 -5.910870766877375e-05 0.0002588788946049532 0 -4.7969924375662943e-05 -0.00010823340548684699 0 -5.6477837943238405e-05 -0.00011369614436703598 0 -4.9471405197538928e-05 -0.00012209900176286784 0 -4.7063626814373028e-06 7.542358686067477e-07 0 -5.9885243493712152e-06 2.7310273659217836e-07 0 -6.8708803237931206e-06 1.9458565625053653e-08 0 -1.7575465779038708e-05 -9.4238475806114609e-06 0 -2.1445640610264087e-05 -1.2207463925743948e-05 0 -1.9165909806931575e-05 -7.8516302856903217e-06 0 -2.398928392250192e-05 0.00021340631074453635 0 -5.8032597031184567e-06 0.00022054917059179888 0 -1.8916440827002576e-05 0.00024245484726551311 0 -6.2254217639862679e-05 -0.00010214329636141607 0 -7.121450729247265e-05 -0.00010671165250754068 0 -6.6459142297937832e-05 -0.00011577773016899258 0 -3.0676286313308161e-05 -1.1555875561889426e-05 0 -3.6642980369384699e-05 -1.4992855019660399e-05 0 -3.0277580899709738e-05 -1.1418932716712047e-05 0 -5.7355211730852105e-05 2.2288862572914155e-05 0 -4.6819821889488427e-05 1.5520035337641637e-05 0 -4.520287982894486e-05 1.5723990664211982e-05 0 -2.187605553856539e-05 3.2979577756564993e-05 0 -2.5672563700760113e-05 4.8298424269204564e-05 0 -3.6839971528818905e-05 5.1603320328019637e-05 0 -1.3136163427930473e-05 -2.7475887998639667e-06 0 -1.6650713909290731e-05 -4.5452672608681026e-06 0 -1.5265434527049461e-05 -4.1464384019711433e-06 0 -4.4714674695242071e-05 -4.4920316249149234e-05 0 -4.1723124521042037e-05 -4.2632962235948928e-05 0 -4.2074974349032294e-05 -4.037622605934413e-05 0 -4.4714674695242071e-05 -4.4920316249149234e-05 0 -4.2074974349032294e-05 -4.037622605934413e-05 0 -4.3940461449000351e-05 -4.2874967766485557e-05 0 -2.5445612839971866e-05 -3.8360848052439158e-05 0 -2.3597769149768732e-05 -3.5376818303083492e-05 0 -2.5898516606181382e-05 -4.1252602493391261e-05 0 -2.5445612839971866e-05 -3.8360848052439158e-05 0 -2.5898516606181382e-05 -4.1252602493391261e-05 0 -2.6814928395527198e-05 -4.3416553779921726e-05 0 -3.9710628746553124e-05 -3.7907876029597829e-05 0 -3.6470354604311892e-05 -3.7240263543012381e-05 0 -3.7914323607384606e-05 -3.5563206432924653e-05 0 -2.5777572677331633e-05 -4.0215132600058138e-05 0 -2.5421450160800345e-05 -3.7119314975008364e-05 0 -2.714709722306663e-05 -4.056805341402196e-05 0 -1.4520206204442061e-05 -2.0971947334769921e-05 0 -1.8503727423918131e-05 -2.6181343962186728e-05 0 -1.6857048021421171e-05 -2.463138020195926e-05 0 -3.9172176538352158e-05 -3.1378234912420235e-05 0 -4.0690955765471011e-05 -3.5215367969771936e-05 0 -3.760920189120691e-05 -3.1301023212569112e-05 0 -1.6805630516097398e-06 1.7684863701093358e-06 0 -1.0397420563336115e-05 -5.0725486126621874e-06 0 -5.5747403634135479e-06 -7.5018777444984627e-06 0 -3.643822631007631e-05 0.00027012467938782156 0 -1.9843257533947418e-05 0.0002892903442675029 0 -4.0912276431650232e-05 0.00029601237982095546 0 -8.618238894666014e-05 0.0002711905629768968 0 -8.2492209575922719e-05 0.00029645551227262888 0 -0.00010580235586131545 0.00029139846247504687 0 -5.9659128932195018e-05 -0.00012746740717747821 0 -6.8105350705121816e-05 -0.00013669629346639862 0 -5.8157052022154148e-05 -0.00013897861618233768 0 -3.9339276638690231e-05 -0.00012762677650567778 0 -4.1264007107441551e-05 -0.00013908061001417148 0 -3.3000902574280996e-05 -0.00013606450033818183 0 -5.4018948771864775e-06 1.0856206216435366e-06 0 -4.2150788022158923e-06 1.3177595408938602e-06 0 -4.8751755033301634e-06 9.1272050216662589e-07 0 -3.643822631007631e-05 0.00027012467938782156 0 -1.3605606152626217e-05 0.00026588289805903268 0 -1.9843257533947414e-05 0.0002892903442675029 0 -5.9659128932195018e-05 -0.00012746740717747821 0 -7.021989827944818e-05 -0.00012673343711252789 0 -6.8105350705121816e-05 -0.00013669629346639862 0 -1.8567905863658458e-05 -2.5861619881939931e-06 0 -1.6262499689172738e-05 1.2032922198768341e-06 0 -1.4454767802389038e-05 6.8002826844300543e-07 0 -8.618238894666014e-05 0.0002711905629768968 0 -0.00010580235586131545 0.00029139846247504687 0 -0.00011049185155755228 0.00026847201914791807 0 -3.9339276638690231e-05 -0.00012762677650567778 0 -3.3000902574280996e-05 -0.00013606450033818183 0 -3.0192807070104224e-05 -0.00012492456578053906 0 -2.8513880728355398e-05 -6.0456462923723929e-05 0 -2.0692489248432401e-05 -5.2610317328399363e-05 0 -2.6259134030653167e-05 -4.6016856264697867e-05 0 -2.8436892077697563e-05 -1.5635905264778401e-05 0 -2.8861540189166073e-05 -1.7596171306343275e-05 0 -2.5979907692421087e-05 -1.2304566042760864e-05 0 -2.6469205648282329e-05 -1.4557472565459242e-05 0 -2.5979907692421087e-05 -1.2304566042760864e-05 0 -2.8861540189166073e-05 -1.7596171306343275e-05 0 -9.7715673173784642e-06 3.8066510792215817e-06 0 -1.1540931518424684e-05 2.2565178730816699e-06 0 -7.6453286792021824e-06 2.1920501538659202e-06 0 -5.411841646114345e-05 0.00010740342233433558 0 -3.5434597139852356e-05 0.00010032513465338303 0 -4.3577717017403072e-05 0.00012734636381909781 0 -7.1393805879903593e-05 -6.422922015866243e-05 0 -6.4266549856924597e-05 -6.6736725449650201e-05 0 -5.875235464360672e-05 -5.5685864720238108e-05 0 -9.8946374901169189e-06 1.6616663286967842e-05 0 -1.7645146010532669e-05 1.6113284183420736e-05 0 -1.0512830859095214e-05 1.110928052432491e-05 0 -1.5268120421333644e-05 9.5671817321100396e-06 0 -1.0512830859095214e-05 1.110928052432491e-05 0 -1.7645146010532669e-05 1.6113284183420736e-05 0 -4.5665281975758375e-06 3.8210533149310387e-06 0 -5.3183796212837995e-06 4.1801134871424154e-06 0 -5.2860358907045673e-06 6.1862734489998985e-06 0 -2.9261305807724687e-05 -2.968577803519554e-05 0 -2.9321871274237635e-05 -3.2669850089794736e-05 0 -2.6553042836783902e-05 -2.934823270014776e-05 0 -2.7559038285436793e-05 -3.4085591614786291e-05 0 -2.6553042836783902e-05 -2.934823270014776e-05 0 -2.9321871274237635e-05 -3.2669850089794736e-05 0 -9.3027346293060364e-05 6.1598466094223833e-05 0 -8.1211530451796548e-05 4.4651934197289056e-05 0 -7.1794959527046845e-05 4.8127425652637799e-05 0 -4.9396466909071511e-05 -2.5491641451028975e-05 0 -5.5708016170800331e-05 -3.3029394472491298e-05 0 -4.5592408003860494e-05 -2.6596186092452067e-05 0 -1.8020982908334966e-09 -3.8547044320406762e-10 0 -1.4678950335745068e-09 -2.9528991327668459e-10 0 -1.3648699831582684e-06 -5.3037360018980895e-07 0 -1.6049587986511032e-09 3.0368251081020045e-10 0 -1.839437002598638e-09 2.8746489746135878e-10 0 -1.5855853216203556e-06 5.4726880122528625e-07 0 -7.4048532499759608e-06 7.264179811228225e-06 0 -5.2654134282289585e-06 4.8443744997038578e-06 0 -5.7625342860344551e-06 7.4673677095379323e-06 0 -6.2662975967975262e-06 5.6554909668215364e-06 0 -5.2860358907045673e-06 6.1862734489998985e-06 0 -5.3183796212837995e-06 4.1801134871424154e-06 0 -4.5665281975758375e-06 3.8210533149310387e-06 0 -5.2654134282289594e-06 4.8443744997038569e-06 0 -4.5418464453014922e-06 3.3394354844480289e-06 0 -1.1995510748979478e-05 4.4837743762239977e-07 0 -1.640684335744327e-05 2.0073244606747821e-06 0 -1.2777033773910311e-05 1.2428463201387538e-06 0 -9.4400357971513466e-06 -1.442889228703574e-06 0 -9.4416999042378784e-06 -2.0809595609428505e-06 0 -1.2216111776024468e-05 -2.7851570989193391e-06 0 -2.085882761990369e-05 0.00012530263365172599 0 -1.579941690993787e-05 9.5713495377310661e-05 0 -2.4319054754829287e-06 0.00011607018168247995 0 -1.1995510748979478e-05 4.4837743762239977e-07 0 -1.2777033773910309e-05 1.2428463201387536e-06 0 -9.3069774263285447e-06 3.494476387147943e-08 0 -9.4400357971513466e-06 -1.442889228703574e-06 0 -7.182082108119004e-06 -1.0187592470975132e-06 0 -9.4416999042378784e-06 -2.0809595609428505e-06 0 -3.4329203425736823e-05 -2.9378215468915827e-05 0 -3.591357996664269e-05 -3.2222692925243311e-05 0 -3.380783029411626e-05 -3.2480490961598532e-05 0 -2.8768911315556546e-05 6.915865179604226e-05 0 -1.5649041354554027e-05 4.3898796796085897e-05 0 -1.0980117131495687e-05 7.0387650295497601e-05 0 -5.2512989128014154e-06 2.3259601250457558e-06 0 -4.5418464453014922e-06 3.3394354844480289e-06 0 -5.2654134282289594e-06 4.8443744997038578e-06 0 -2.3542397004497862e-05 -2.9079827386581249e-05 0 -2.0373200872886348e-05 -2.6196117495871127e-05 0 -2.2699650141916669e-05 -2.4248846787289911e-05 0 -3.0275419283179681e-09 -3.7482616464932595e-10 0 -2.3207730623850508e-09 -5.652206409888727e-10 0 -2.2884489589727118e-06 -8.731653497727266e-07 0 -2.1680966362724362e-09 2.925003924212182e-10 0 -2.5859713631652047e-09 1.0371541977979451e-10 0 -2.1050922389217217e-06 3.6355036359501178e-07 0 -1.9822049789351615e-05 -6.9946441696206265e-06 0 -2.5166797167456065e-05 -8.9612757723572487e-06 0 -2.0441573500673078e-05 -6.4315136697565043e-06 0 -3.7357447398241022e-05 1.0935106454551318e-05 0 -2.8701337076921797e-05 7.9274119980078556e-06 0 -2.9878958654411951e-05 7.1426968752548079e-06 0 -2.7844081799399166e-05 -2.1707200099269857e-05 0 -3.1033112972725202e-05 -1.9337750047273772e-05 0 -3.3906863635795457e-05 -2.5312080465868338e-05 0 -1.3458906232704053e-05 -4.523121961482947e-05 0 -1.9475066098390191e-05 -4.07087610081792e-05 0 -2.0692489248432397e-05 -5.2610317328399363e-05 0 -1.5927334423068406e-05 -3.356271014689387e-06 0 -1.5974298670889354e-05 -5.8629138431171588e-06 0 -1.9165909806931575e-05 -7.8516302856903217e-06 0 -7.9402482200300119e-06 1.5310788610607506e-06 0 -7.4674836261823101e-06 3.7154892591743032e-06 0 -6.1459644401250245e-06 2.4791613756852853e-06 0 -9.5221705612935413e-06 1.7255199722709045e-06 0 -7.4674836261823101e-06 3.7154892591743032e-06 0 -7.9402482200300119e-06 1.5310788610607506e-06 0 -5.7065123012968325e-06 9.2904928194886115e-06 0 -6.6080235430049548e-06 1.1266952294088211e-05 0 -5.7625342860344551e-06 7.4673677095379323e-06 0 -7.4048532499759608e-06 7.264179811228225e-06 0 -5.7625342860344551e-06 7.4673677095379315e-06 0 -6.6080235430049548e-06 1.1266952294088211e-05 0 -2.7245209942926729e-05 -3.7433659569581371e-05 0 -2.9198563392688226e-05 -3.990968678976773e-05 0 -2.714709722306663e-05 -4.056805341402196e-05 0 -3.4224328529771153e-05 -2.2258066248404341e-05 0 -3.1630119174533564e-05 -2.0320205861576153e-05 0 -3.0398644189018981e-05 -1.780888748126802e-05 0 -1.7575465779038708e-05 -9.4238475806114609e-06 0 -1.8223095730096279e-05 -1.3479518121165781e-05 0 -2.1445640610264087e-05 -1.2207463925743948e-05 0 -1.8913010651980471e-05 -1.80923822314332e-05 0 -2.1445640610264087e-05 -1.2207463925743948e-05 0 -1.8223095730096279e-05 -1.3479518121165781e-05 0 -1.4764811234481193e-05 -5.4829136263334613e-06 0 -1.9822049789351615e-05 -6.9946441696206265e-06 0 -1.6748035732802676e-05 -5.2382499238929523e-06 0 -2.8701337076921797e-05 7.9274119980078556e-06 0 -2.0875100549119804e-05 5.8906996860339839e-06 0 -2.3968586029028115e-05 5.3844224613559661e-06 0 -3.0561675836384111e-05 -4.4237164032742803e-05 0 -2.8284901537748188e-05 -4.501270707596458e-05 0 -2.9909557747158928e-05 -4.2330078816342087e-05 0 -1.7645146010532669e-05 1.6113284183420736e-05 0 -1.5837841524190254e-05 2.195578353913411e-05 0 -2.4325599093603531e-05 2.4621595709872859e-05 0 -3.6873983007878709e-06 1.7343820562119808e-06 0 -3.9006918371922338e-06 2.4978549952203249e-06 0 -3.2506049553526416e-06 1.4802603560593131e-06 0 -5.2257131899301651e-06 -5.9758012396326694e-07 0 -7.9745272359482342e-06 -5.2360332586060098e-07 0 -9.3069774263285447e-06 3.494476387147943e-08 0 -4.1221203206664514e-06 -2.2476244875409919e-07 0 -7.1820821081190049e-06 -1.0187592470975134e-06 0 -6.5035873584548202e-06 -4.9687039543485468e-07 0 -4.7063626814373028e-06 7.542358686067477e-07 0 -4.8199642000732507e-06 5.9869604791804325e-07 0 -5.9885243493712161e-06 2.7310273659217836e-07 0 -1.5927334423068406e-05 -3.356271014689387e-06 0 -1.7228113870351789e-05 -2.7229924381806487e-06 0 -1.4454767802389038e-05 6.8002826844300543e-07 0 -2.3391554715447726e-05 -3.3581931829844998e-05 0 -2.4914211790477085e-05 -3.3019856152668356e-05 0 -2.5421450160800345e-05 -3.7119314975008364e-05 0 -7.3014372255151128e-06 -2.5403695429130165e-07 0 -5.9885243493712161e-06 2.7310273659217836e-07 0 -4.8199642000732507e-06 5.9869604791804325e-07 0 -0.00013021642495245853 0.00018750219344351507 0 -0.00010224659108612275 0.00017234375088424336 0 -0.00010977960444000013 0.00019850639939494335 0 -1.5330003684631678e-05 -8.2946659690039549e-05 0 -2.570444890350839e-05 -7.862194933556573e-05 0 -2.5013822627683487e-05 -9.056265120239697e-05 0 -1.4187909577900773e-05 -7.0036988862127346e-05 0 -2.2645163304721882e-05 -6.6247689238432445e-05 0 -2.570444890350839e-05 -7.862194933556573e-05 0 -2.2998517211078323e-05 -9.6718230002897385e-06 0 -2.0557969343063201e-05 -5.0374951915259173e-06 0 -2.2613515228436797e-05 -7.9543303446977944e-06 0 -3.4224328529771153e-05 -2.2258066248404341e-05 0 -3.437067575305733e-05 -2.4165237499591875e-05 0 -3.1630119174533571e-05 -2.0320205861576153e-05 0 -8.7479814175427531e-06 -7.8959259693923678e-07 0 -1.162224597260662e-05 -3.1152858329131421e-06 0 -9.9628844192278327e-06 -1.2042771777522264e-06 0 -1.8567905863658458e-05 -2.5861619881939931e-06 0 -1.4454767802389038e-05 6.8002826844300543e-07 0 -1.7228113870351789e-05 -2.7229924381806487e-06 0 5.0299344285291532e-06 0.00028621575634906317 0 -1.070932221452761e-05 0.00030081515647128543 0 -1.9843257533947414e-05 0.0002892903442675029 0 -8.0378796368484132e-05 -0.0001380473083156168 0 -7.3066968755806688e-05 -0.00014275238852964667 0 -6.8105350705121816e-05 -0.00013669629346639862 0 -2.3027840431538814e-05 -0.00013414796845125055 0 -3.3000902574280996e-05 -0.00013606450033818181 0 -2.9529066184014616e-05 -0.00014104645913859328 0 -0.00013382472919584848 0.00029443746370819206 0 -0.00010580235586131545 0.00029139846247504687 0 -0.00011712393279310041 0.00030520880285821801 0 -1.0228595676690695e-05 -2.1704351088644263e-07 0 -8.1461462101172128e-06 2.9928088616118667e-07 0 -9.9628844192278327e-06 -1.2042771777522264e-06 0 -8.7479814175427531e-06 -7.8959259693923678e-07 0 -9.9628844192278327e-06 -1.2042771777522264e-06 0 -8.1461462101172128e-06 2.9928088616118667e-07 0 -1.4282211679122225e-05 -6.5752524162490257e-06 0 -1.1622245972606619e-05 -3.1152858329131417e-06 0 -1.2369379760379923e-05 -4.1593870483157959e-06 0 -4.3569278974401349e-05 1.8212028803614026e-05 0 -4.520287982894486e-05 1.5723990664211982e-05 0 -3.351318198849816e-05 1.082935764618963e-05 0 -3.6500344947104043e-05 1.0191326656869522e-05 0 -3.351318198849816e-05 1.082935764618963e-05 0 -4.520287982894486e-05 1.5723990664211982e-05 0 -1.5268120421333644e-05 9.5671817321100396e-06 0 -1.9321064032876237e-05 8.0859064471532394e-06 0 -1.3601077936498008e-05 5.3274765261304388e-06 0 -1.6589429977706106e-05 -6.906044392295261e-06 0 -1.2780951973748444e-05 -3.7729104463251953e-06 0 -1.4220744144313841e-05 -4.0967470190942321e-06 0 -1.7575465779038708e-05 -9.4238475806114609e-06 0 -1.6631756543860196e-05 -1.0559096670961653e-05 0 -1.8223095730096279e-05 -1.3479518121165781e-05 0 -9.4400357971513466e-06 -1.442889228703574e-06 0 -7.4104200914498655e-06 -4.4682373471718594e-07 0 -6.5035873584548202e-06 -4.9687039543485468e-07 0 -4.4595410183065579e-06 1.2576761888990773e-07 0 -6.5035873584548202e-06 -4.9687039543485468e-07 0 -7.4104200914498664e-06 -4.4682373471718599e-07 0 -5.0913973034686558e-06 -9.6080001928624202e-07 0 -8.2073801492564437e-06 -4.1515169780983414e-07 0 -7.9745272359482342e-06 -5.2360332586060087e-07 0 -1.1995510748979478e-05 4.4837743762239977e-07 0 -7.9745272359482342e-06 -5.2360332586060109e-07 0 -8.2073801492564437e-06 -4.1515169780983414e-07 0 -5.5945842082114495e-05 -6.3483384055494006e-05 0 -6.2022323021442599e-05 -7.5837113412549628e-05 0 -5.2382522453139441e-05 -7.0449448254512355e-05 0 -5.3709853013053025e-05 -8.1462059426975819e-05 0 -5.2382522453139441e-05 -7.0449448254512355e-05 0 -6.2022323021442599e-05 -7.5837113412549628e-05 0 -1.9770442727844579e-06 -8.4020642946220168e-07 0 -1.3648699831582684e-06 -5.3037360018980895e-07 0 -3.2103888559879429e-06 -6.5987909668157798e-07 0 -2.1410098595237283e-06 -3.6190827063246136e-07 0 -3.2103888559879429e-06 -6.5987909668157798e-07 0 -1.3648699831582684e-06 -5.3037360018980895e-07 0 -2.7751895262536352e-06 7.673481197574625e-07 0 -1.5855853216203556e-06 5.4726880122528625e-07 0 -3.4788302269815649e-06 6.6439538715047883e-07 0 -2.0216766540959522e-06 5.2272243563155968e-07 0 -3.4788302269815649e-06 6.6439538715047883e-07 0 -1.5855853216203556e-06 5.4726880122528625e-07 0 -5.9181331314946196e-05 0.00022925198995022358 0 -4.2892995016818602e-05 0.00021364909546202433 0 -4.0677747595632878e-05 0.00023994331078560401 0 -4.7969924375662943e-05 -0.00010823340548684699 0 -5.3885763346479319e-05 -0.000101531683060749 0 -5.6477837943238405e-05 -0.00011369614436703598 0 -8.7945649470034369e-06 -8.3792746865031491e-07 0 -6.7791131215851055e-06 -1.3943814303996809e-07 0 -7.4104200914498664e-06 -4.4682373471718599e-07 0 -8.307013817463077e-06 5.8653940326164034e-07 0 -8.2073801492564437e-06 -4.1515169780983414e-07 0 -6.5645478532403628e-06 -2.6296019312293956e-07 0 -1.6589429977706106e-05 -6.906044392295261e-06 0 -1.6601605703751731e-05 -8.8227751703910615e-06 0 -1.3933608879336212e-05 -5.5033849304784253e-06 0 -9.4400357971513466e-06 -1.442889228703574e-06 0 -1.0505386689265323e-05 -1.5646750064459376e-06 0 -7.4104200914498664e-06 -4.4682373471718599e-07 0 -1.1995510748979478e-05 4.4837743762239977e-07 0 -8.2073801492564437e-06 -4.1515169780983414e-07 0 -1.2022100116353297e-05 7.5178023542094428e-07 0 -1.8913010651980471e-05 -1.80923822314332e-05 0 -2.4111446339963768e-05 -1.3489610258939208e-05 0 -2.1445640610264087e-05 -1.2207463925743948e-05 0 -8.7479814175427531e-06 -7.8959259693923678e-07 0 -1.0401223672189273e-05 -2.2906819732391031e-06 0 -1.162224597260662e-05 -3.1152858329131421e-06 0 -3.4161384016614444e-09 -8.7625672425585966e-10 0 -3.0275419283179681e-09 -3.7482616464932595e-10 0 -2.5061304795371228e-06 -6.9142612655884626e-07 0 -2.5859713631652047e-09 1.0371541977979451e-10 0 -2.7196868443667085e-09 3.6563309589516389e-10 0 -2.1045565493727283e-06 1.5210313784420906e-07 0 -9.8946374901169189e-06 1.6616663286967842e-05 0 -1.0512830859095214e-05 1.110928052432491e-05 0 -6.6080235430049548e-06 1.1266952294088211e-05 0 -3.1114973089606899e-05 -3.9507919689565179e-05 0 -3.1846952075091691e-05 -4.1768412014539582e-05 0 -2.9909557747158928e-05 -4.2330078816342087e-05 0 -1.6589429977706106e-05 -6.906044392295261e-06 0 -1.778580977628491e-05 -6.3950323680859877e-06 0 -2.1076568623767869e-05 -9.5052379252868887e-06 0 -2.6259134030653167e-05 -4.6016856264697867e-05 0 -2.0692489248432397e-05 -5.2610317328399363e-05 0 -1.9475066098390191e-05 -4.07087610081792e-05 0 -1.0228595676690695e-05 -2.1704351088644263e-07 0 -7.9402482200300119e-06 1.5310788610607506e-06 0 -8.1461462101172128e-06 2.9928088616118667e-07 0 -1.3696806984263044e-05 -4.5135742513135548e-06 0 -1.1700921685186539e-05 -2.3462730836546558e-06 0 -1.162224597260662e-05 -3.1152858329131421e-06 0 -8.38674807646696e-06 6.1605034043415402e-07 0 -1.2450134770155542e-05 2.6299414923966852e-06 0 -5.9832257213643158e-06 1.2244661441828442e-06 0 -6.2245305429581725e-06 -1.3302223398746122e-06 0 -4.3611167278720821e-06 -1.4675130737642035e-06 0 -8.9786485732540182e-06 -2.9437336212699165e-06 0 -1.9466654903407108e-05 -1.3059176423827944e-05 0 -1.8987454508900408e-05 -1.5467945714790231e-05 0 -1.6631756543860196e-05 -1.0559096670961653e-05 0 -6.1459644401250245e-06 2.4791613756852853e-06 0 -6.3461003161648131e-06 1.2672853592411114e-06 0 -7.9402482200300119e-06 1.5310788610607506e-06 0 -1.1314865575123531e-05 -3.0093180121161446e-06 0 -1.2780951973748445e-05 -3.7729104463251958e-06 0 -1.3933608879336212e-05 -5.5033849304784253e-06 0 -2.9617117148720284e-05 -1.213276610698029e-05 0 -3.0868996300885986e-05 -1.5315158094556054e-05 0 -2.5412459683608205e-05 -1.1236787640985784e-05 0 -0.00012641119227582294 0.00015959473610035755 0 -0.00010342320635445063 0.00014717157760075979 0 -0.00010224659108612275 0.00017234375088424336 0 -1.9466654903407108e-05 -1.3059176423827944e-05 0 -2.0275173997848371e-05 -1.103003893230854e-05 0 -2.3979061234014155e-05 -1.55212882391946e-05 0 -2.2613515228436797e-05 -7.9543303446977944e-06 0 -2.5979907692421083e-05 -1.2304566042760864e-05 0 -2.4505924211351242e-05 -1.1225148445115192e-05 0 -1.6589429977706106e-05 -6.906044392295261e-06 0 -2.1076568623767869e-05 -9.5052379252868887e-06 0 -2.0275173997848371e-05 -1.103003893230854e-05 0 -8.1461462101172128e-06 2.9928088616118667e-07 0 -7.9402482200300119e-06 1.5310788610607506e-06 0 -6.3461003161648131e-06 1.2672853592411114e-06 0 -2.8436892077697563e-05 -1.5635905264778401e-05 0 -3.0398644189018981e-05 -1.780888748126802e-05 0 -3.1630119174533571e-05 -2.0320205861576153e-05 0 -9.8946374901169189e-06 1.6616663286967842e-05 0 -5.0785128052259489e-06 1.808645562386453e-05 0 -9.6671815228241538e-06 2.4628013543043408e-05 0 -1.6589429977706106e-05 -6.906044392295261e-06 0 -1.4220744144313841e-05 -4.0967470190942321e-06 0 -1.778580977628491e-05 -6.3950323680859877e-06 0 -0.0001325441454995819 0.00021530870398100724 0 -0.00013021642495245853 0.00018750219344351507 0 -0.00010977960444000013 0.00019850639939494335 0 -1.5330003684631678e-05 -8.2946659690039549e-05 0 -2.5013822627683487e-05 -9.056265120239697e-05 0 -1.6871777370117379e-05 -9.6083522480849623e-05 0 -1.3489687850840848e-05 -5.7472956728839952e-05 0 -2.2645163304721882e-05 -6.6247689238432445e-05 0 -1.4187909577900773e-05 -7.0036988862127346e-05 0 -3.0804706013922819e-05 2.04738444380759e-05 0 -4.402150479806996e-05 2.4424453673310553e-05 0 -3.5683753668132145e-05 1.6496360866718322e-05 0 -1.6805630516097398e-06 1.7684863701093358e-06 0 -1.028673805132332e-05 9.2417664222204883e-06 0 -1.0397420563336115e-05 -5.0725486126621874e-06 0 -2.9617117148720284e-05 -1.213276610698029e-05 0 -3.0277580899709738e-05 -1.1418932716712047e-05 0 -3.4940206494805671e-05 -1.4540022489469742e-05 0 -4.3569278974401349e-05 1.8212028803614026e-05 0 -5.3451310159462384e-05 2.1728801623381958e-05 0 -4.520287982894486e-05 1.5723990664211982e-05 0 -2.9617117148720284e-05 -1.213276610698029e-05 0 -3.4940206494805671e-05 -1.4540022489469742e-05 0 -3.6416237829855736e-05 -1.696026930820279e-05 0 -4.3569278974401349e-05 1.8212028803614026e-05 0 -5.5203115801651905e-05 2.7014230917391283e-05 0 -5.3451310159462384e-05 2.1728801623381958e-05 0 -6.2245305429581725e-06 -1.3302223398746122e-06 0 -3.0391143799220153e-06 -4.5211462764461795e-07 0 -4.3611167278720821e-06 -1.4675130737642035e-06 0 -8.38674807646696e-06 6.1605034043415402e-07 0 -5.9832257213643158e-06 1.2244661441828442e-06 0 -4.0525737099363392e-06 -7.7979990964832987e-08 0 -1.3696806984263044e-05 -4.5135742513135548e-06 0 -1.5372961602519394e-05 -7.4700527901348171e-06 0 -1.5974298670889354e-05 -5.8629138431171588e-06 0 -1.7575465779038708e-05 -9.4238475806114609e-06 0 -1.5974298670889354e-05 -5.8629138431171588e-06 0 -1.5372961602519394e-05 -7.4700527901348171e-06 0 -4.0690955765471011e-05 -3.5215367969771936e-05 0 -3.9964684581044398e-05 -3.4965070844881795e-05 0 -3.760920189120691e-05 -3.1301023212569112e-05 0 -1.6857048021421171e-05 -2.463138020195926e-05 0 -1.8503727423918131e-05 -2.6181343962186728e-05 0 -2.0450199008350176e-05 -3.0029690474332793e-05 0 -5.5747403634135479e-06 -7.5018777444984627e-06 0 -1.0397420563336115e-05 -5.0725486126621865e-06 0 -1.1489573011167889e-05 -1.2422989636258418e-05 0 -1.4520206204442061e-05 -2.0971947334769921e-05 0 -1.5923224312842525e-05 -2.1766966784657333e-05 0 -1.8503727423918131e-05 -2.6181343962186728e-05 0 -3.9172176538352158e-05 -3.1378234912420235e-05 0 -3.760920189120691e-05 -3.1301023212569112e-05 0 -3.6286822515568091e-05 -2.7874517606795672e-05 0 -1.6589429977706106e-05 -6.906044392295261e-06 0 -1.3933608879336212e-05 -5.5033849304784253e-06 0 -1.2780951973748444e-05 -3.7729104463251953e-06 0 -1.4282211679122225e-05 -6.5752524162490257e-06 0 -1.6631756543860196e-05 -1.0559096670961653e-05 0 -1.5372961602519394e-05 -7.4700527901348171e-06 0 -1.7575465779038708e-05 -9.4238475806114609e-06 0 -1.5372961602519394e-05 -7.4700527901348171e-06 0 -1.6631756543860196e-05 -1.0559096670961653e-05 0 -1.0228595676690695e-05 -2.1704351088644263e-07 0 -1.3276177079048586e-05 -2.6667969566316155e-06 0 -1.2337916854544593e-05 3.0268212304406772e-08 0 -0.00012641119227582294 0.00015959473610035755 0 -0.00012072457829088599 0.00013204972608191231 0 -0.00010342320635445063 0.00014717157760075979 0 -1.8567905863658458e-05 -2.5861619881939931e-06 0 -1.7228113870351789e-05 -2.7229924381806483e-06 0 -1.9957276844565111e-05 -5.840375481628165e-06 0 -2.187605553856539e-05 3.2979577756564993e-05 0 -1.5837841524190251e-05 2.195578353913411e-05 0 -9.6671815228241538e-06 2.4628013543043408e-05 0 -9.8946374901169189e-06 1.6616663286967842e-05 0 -9.6671815228241538e-06 2.4628013543043408e-05 0 -1.5837841524190254e-05 2.195578353913411e-05 0 -1.3458906232704053e-05 -4.523121961482947e-05 0 -2.0692489248432397e-05 -5.2610317328399363e-05 0 -1.3489687850840848e-05 -5.7472956728839952e-05 0 -6.8992175302637186e-05 3.1529268553369073e-05 0 -5.3451310159462384e-05 2.1728801623381958e-05 0 -5.5203115801651905e-05 2.7014230917391283e-05 0 -4.2946377957539505e-05 -1.9481082950783678e-05 0 -3.6416237829855729e-05 -1.6960269308202787e-05 0 -3.4940206494805671e-05 -1.4540022489469742e-05 0 -1.5927334423068406e-05 -3.356271014689387e-06 0 -1.9957276844565107e-05 -5.8403754816281642e-06 0 -1.7228113870351789e-05 -2.7229924381806487e-06 0 -7.5759610140858739e-05 0.00017135595112156333 0 -0.00010224659108612275 0.00017234375088424336 0 -8.6222722363402007e-05 0.00015170329588455153 0 -7.5759610140858739e-05 0.00017135595112156333 0 -9.1460495352097416e-05 0.00019027367180750554 0 -0.00010224659108612275 0.00017234375088424336 0 -3.5867596876343971e-05 -7.9925488782167238e-05 0 -3.1652329229627292e-05 -8.7881389331582796e-05 0 -2.570444890350839e-05 -7.862194933556573e-05 0 -3.5867596876343971e-05 -7.9925488782167238e-05 0 -2.570444890350839e-05 -7.8621949335565716e-05 0 -2.987231741162213e-05 -7.1042279524613473e-05 0 -1.6871777370117379e-05 -9.6083522480849623e-05 0 -2.5551070651050971e-05 -0.00010230572289307493 0 -1.8899020777493827e-05 -0.00010939922499896826 0 -0.00013354163478023121 0.00024261601230638093 0 -0.0001325441454995819 0.00021530870398100724 0 -0.0001136387117546687 0.00022316284151061494 0 -5.2756258705106524e-06 3.2449544938285787e-07 0 -4.3604798701217636e-06 3.9380085915596374e-07 0 -6.7791131215851055e-06 -1.394381430399682e-07 0 -4.7124021234357046e-06 -6.0174811870098991e-07 0 -6.5645478532403628e-06 -2.6296019312293956e-07 0 -4.2206400839232834e-06 -1.0108634236402812e-06 0 -3.5867596876343971e-05 -7.9925488782167238e-05 0 -4.2739565513853849e-05 -8.0924780586086504e-05 0 -3.8813760436080596e-05 -9.11826817700819e-05 0 -3.5867596876343971e-05 -7.9925488782167238e-05 0 -3.6268852743028052e-05 -6.9786590584229916e-05 0 -4.2739565513853849e-05 -8.0924780586086504e-05 0 -4.7659607781524801e-05 -9.3392325785378522e-05 0 -3.8813760436080596e-05 -9.11826817700819e-05 0 -4.2739565513853849e-05 -8.0924780586086504e-05 0 -4.4263295349234801e-05 -6.9814148664015837e-05 0 -4.2739565513853849e-05 -8.0924780586086504e-05 0 -3.6268852743028052e-05 -6.9786590584229916e-05 0 -7.5759610140858739e-05 0.00017135595112156333 0 -5.8123431264623201e-05 0.00017299830122340448 0 -7.5297867175497867e-05 0.00019650652811266796 0 -5.4500379726477668e-05 0.00019614349746926475 0 -7.5297867175497867e-05 0.00019650652811266796 0 -5.8123431264623201e-05 0.00017299830122340448 0 -2.5859713631652047e-09 1.0371541977979451e-10 0 -2.1045565493727283e-06 1.5210313784420906e-07 0 -2.1050922389217217e-06 3.6355036359501178e-07 0 -3.0275419283179681e-09 -3.7482616464932595e-10 0 -2.2884489589727118e-06 -8.731653497727266e-07 0 -2.5061304795371228e-06 -6.9142612655884626e-07 0 -4.8536766713473713e-05 -3.4913201436441803e-05 0 -3.9645023969546478e-05 -2.6117484248855361e-05 0 -4.5592408003860494e-05 -2.6596186092452067e-05 0 -7.5298081648896435e-05 6.5835760076230968e-05 0 -7.1794959527046845e-05 4.8127425652637799e-05 0 -5.9835393725183884e-05 4.6558541125224589e-05 0 -2.0505447642984611e-05 -6.3603713495405513e-06 0 -2.5702139597948654e-05 -9.1771503585244545e-06 0 -2.3913647991794184e-05 -8.8663327436881524e-06 0 -5.4018948771864775e-06 1.0856206216435366e-06 0 -6.6786095109592283e-06 4.3022282866128009e-07 0 -6.3461003161648131e-06 1.2672853592411114e-06 0 -2.832404155294337e-05 -4.2136978351416568e-05 0 -2.714709722306663e-05 -4.056805341402196e-05 0 -2.9198563392688226e-05 -3.990968678976773e-05 0 -2.2348041613330501e-05 4.0725997404976108e-06 0 -2.6856394695512867e-05 5.9551946097136714e-06 0 -2.9878958654411951e-05 7.1426968752548079e-06 0 -3.6500344947104043e-05 1.0191326656869522e-05 0 -2.9878958654411951e-05 7.1426968752548079e-06 0 -2.6856394695512867e-05 5.9551946097136714e-06 0 -2.9651689790962956e-06 8.3138185438867867e-07 0 -2.8792242553879736e-06 6.0354310085187876e-08 0 -2.1100944191110698e-06 6.569303935841642e-08 0 -9.0758375371863147e-06 -1.3037111622624818e-05 0 -1.4605108330991702e-05 -1.8107491697063298e-05 0 -1.1873605726840908e-05 -1.7191229501293023e-05 0 -4.2946377957539505e-05 -1.9481082950783678e-05 0 -4.2417517548121097e-05 -2.1699355231453485e-05 0 -3.6416237829855736e-05 -1.696026930820279e-05 0 -6.8992175302637186e-05 3.1529268553369073e-05 0 -5.5203115801651905e-05 2.7014230917391283e-05 0 -6.6643903715347665e-05 3.6577203758158599e-05 0 -2.5663032585503213e-05 -1.4827261145657457e-05 0 -2.6768503365000938e-05 -1.3618830909634552e-05 0 -2.4111446339963768e-05 -1.3489610258939208e-05 0 -1.1995510748979478e-05 4.4837743762239977e-07 0 -1.2022100116353297e-05 7.5178023542094428e-07 0 -1.764434505542477e-05 2.3283444985387283e-06 0 -1.4895537096808937e-05 2.4580958714308194e-06 0 -1.764434505542477e-05 2.3283444985387283e-06 0 -1.2022100116353297e-05 7.5178023542094428e-07 0 -2.8768911315556546e-05 6.915865179604226e-05 0 -2.5672563700760116e-05 4.8298424269204571e-05 0 -1.5649041354554027e-05 4.3898796796085897e-05 0 -2.8701337076921797e-05 7.9274119980078556e-06 0 -2.3968586029028115e-05 5.3844224613559661e-06 0 -2.9878958654411951e-05 7.1426968752548079e-06 0 -1.9822049789351615e-05 -6.9946441696206265e-06 0 -2.0441573500673078e-05 -6.4315136697565043e-06 0 -1.6748035732802676e-05 -5.2382499238929523e-06 0 -2.9261305807724687e-05 -2.968577803519554e-05 0 -2.8750036263981426e-05 -2.6275396459455985e-05 0 -3.1695456620113202e-05 -2.9615996431021441e-05 0 -3.0797878756826986e-05 -2.5889035222972097e-05 0 -3.1695456620113202e-05 -2.9615996431021441e-05 0 -2.8750036263981426e-05 -2.6275396459455985e-05 0 -1.0228595676690695e-05 -2.1704351088644263e-07 0 -9.5221705612935413e-06 1.7255199722709045e-06 0 -7.9402482200300119e-06 1.5310788610607506e-06 0 -1.5268120421333644e-05 9.5671817321100396e-06 0 -1.360107793649801e-05 5.327476526130438e-06 0 -1.0412893549595357e-05 6.4519099457194596e-06 0 -4.5665281975758375e-06 3.8210533149310387e-06 0 -4.6070299310050775e-06 2.7741613555953453e-06 0 -5.3183796212837995e-06 4.1801134871424154e-06 0 -2.187605553856539e-05 3.2979577756564993e-05 0 -1.5649041354554027e-05 4.3898796796085897e-05 0 -2.5672563700760113e-05 4.8298424269204564e-05 0 -2.9617117148720284e-05 -1.213276610698029e-05 0 -2.5412459683608205e-05 -1.1236787640985784e-05 0 -2.3913647991794184e-05 -8.8663327436881524e-06 0 -1.1314865575123531e-05 -3.0093180121161446e-06 0 -8.9944130686570047e-06 -1.2275264521832691e-06 0 -9.6590133541912068e-06 -1.52767245164581e-06 0 1.3862754983182658e-05 9.7282852139533003e-05 0 1.5291446807511467e-05 0.00012429324141682548 0 -2.4319054754829287e-06 0.00011607018168247995 0 -7.4929628421982366e-05 -7.6675901987729495e-05 0 -6.2022323021442599e-05 -7.5837113412549628e-05 0 -6.4266549856924597e-05 -6.6736725449650201e-05 0 -6.8992175302637186e-05 3.1529268553369073e-05 0 -5.7355211730852105e-05 2.2288862572914155e-05 0 -5.3451310159462384e-05 2.1728801623381958e-05 0 -3.6642980369384699e-05 -1.4992855019660399e-05 0 -4.2946377957539505e-05 -1.9481082950783678e-05 0 -3.4940206494805671e-05 -1.4540022489469742e-05 0 -1.4454767802389038e-05 6.8002826844300543e-07 0 -1.6262499689172738e-05 1.2032922198768341e-06 0 -1.1881194261084573e-05 4.7827613252623163e-06 0 -1.1995510748979478e-05 4.4837743762239977e-07 0 -1.764434505542477e-05 2.3283444985387283e-06 0 -1.640684335744327e-05 2.0073244606747821e-06 0 -2.2348041613330501e-05 4.0725997404976108e-06 0 -1.640684335744327e-05 2.0073244606747821e-06 0 -1.764434505542477e-05 2.3283444985387283e-06 0 -5.7065123012968325e-06 9.2904928194886115e-06 0 -5.7713225422888551e-06 1.2960792329033592e-05 0 -6.6080235430049548e-06 1.1266952294088211e-05 0 -6.5192499072347354e-05 -8.9454270273720655e-05 0 -6.2022323021442599e-05 -7.5837113412549628e-05 0 -6.9940621892013632e-05 -8.3009713228424472e-05 0 -3.4112443633276939e-05 -2.5467602145973622e-05 0 -3.2757415086862836e-05 -2.5608542050311899e-05 0 -3.166195245463077e-05 -2.1930641695987412e-05 0 1.3056372877056007e-05 0.00020637536654803958 0 1.069154831393346e-05 0.00023399742436771103 0 -5.8032597031184567e-06 0.00022054917059179888 0 -7.9302333482129586e-05 -0.00010228668190352177 0 -8.0115981732055799e-05 -0.00011477934960284229 0 -7.121450729247265e-05 -0.00010671165250754068 0 -3.0804706013922819e-05 2.04738444380759e-05 0 -2.1721923312045605e-05 1.324728571913277e-05 0 -1.7645146010532669e-05 1.6113284183420736e-05 0 -1.9466654903407108e-05 -1.3059176423827944e-05 0 -2.2970244747295684e-05 -1.8426198284246633e-05 0 -1.8987454508900405e-05 -1.5467945714790231e-05 0 -2.5347342203800964e-05 -1.3514290057421713e-05 0 -2.3979061234014155e-05 -1.55212882391946e-05 0 -2.0275173997848371e-05 -1.103003893230854e-05 0 -0.0001325441454995819 0.00021530870398100724 0 -0.00010977960444000013 0.00019850639939494335 0 -0.0001136387117546687 0.00022316284151061494 0 -1.6871777370117379e-05 -9.6083522480849623e-05 0 -2.5013822627683487e-05 -9.056265120239697e-05 0 -2.5551070651050971e-05 -0.00010230572289307493 0 -1.1538256983776507e-05 -2.4980346778840478e-06 0 -9.2151496761118645e-06 -1.1086166321615525e-06 0 -1.1664068602492845e-05 -2.1725424958953829e-06 0 -9.8946374901169189e-06 1.6616663286967842e-05 0 -1.5837841524190254e-05 2.195578353913411e-05 0 -1.7645146010532669e-05 1.6113284183420736e-05 0 -2.9617117148720284e-05 -1.213276610698029e-05 0 -2.5702139597948651e-05 -9.1771503585244545e-06 0 -3.0277580899709738e-05 -1.1418932716712047e-05 0 -3.0363214264781462e-05 -1.7930827153157609e-05 0 -3.4224328529771153e-05 -2.2258066248404341e-05 0 -3.0398644189018981e-05 -1.780888748126802e-05 0 -1.3136163427930473e-05 -2.7475887998639667e-06 0 -1.2649462683262031e-05 -2.587427229695727e-06 0 -1.6396060997868557e-05 -4.2098711962347834e-06 0 -7.1393805879903593e-05 -6.422922015866243e-05 0 -7.4929628421982366e-05 -7.6675901987729495e-05 0 -6.4266549856924597e-05 -6.6736725449650201e-05 0 -2.4290430492981892e-05 -8.0646558735507243e-06 0 -1.9588292579455664e-05 -5.7484351157070433e-06 0 -2.0441573500673078e-05 -6.4315136697565043e-06 0 -1.6068022843099468e-05 -4.2928791481286272e-06 0 -2.0441573500673078e-05 -6.4315136697565043e-06 0 -1.9588292579455664e-05 -5.7484351157070433e-06 0 -8.4090433120770263e-05 0.00013216753619046479 0 -6.6479986057758962e-05 0.00013622195426733332 0 -8.6222722363402007e-05 0.00015170329588455153 0 -1.9770442727844579e-06 -8.4020642946220168e-07 0 -4.2206400839232834e-06 -1.0108634236402812e-06 0 -2.2884489589727118e-06 -8.731653497727266e-07 0 -5.0913973034686558e-06 -9.6080001928624202e-07 0 -2.2884489589727118e-06 -8.731653497727266e-07 0 -4.2206400839232834e-06 -1.0108634236402812e-06 0 -4.4595410183065579e-06 1.2576761888990773e-07 0 -4.3604798701217636e-06 3.9380085915596374e-07 0 -2.1050922389217217e-06 3.6355036359501178e-07 0 -2.0216766540959522e-06 5.2272243563155968e-07 0 -2.1050922389217217e-06 3.6355036359501178e-07 0 -4.3604798701217636e-06 3.9380085915596374e-07 0 -1.4282211679122225e-05 -6.5752524162490257e-06 0 -1.3933608879336211e-05 -5.5033849304784244e-06 0 -1.6601605703751731e-05 -8.8227751703910615e-06 0 -1.8812809904489735e-05 -2.4224861754983006e-06 0 -2.0557969343063201e-05 -5.0374951915259173e-06 0 -2.1089461893662814e-05 -8.1211595105813731e-06 0 -2.2998517211078323e-05 -9.6718230002897385e-06 0 -2.1089461893662814e-05 -8.1211595105813731e-06 0 -2.0557969343063201e-05 -5.0374951915259173e-06 0 -3.4224328529771153e-05 -2.2258066248404341e-05 0 -3.7105788168952458e-05 -2.7027073475521065e-05 0 -3.437067575305733e-05 -2.4165237499591875e-05 0 -2.2998517211078323e-05 -9.6718230002897385e-06 0 -2.2613515228436797e-05 -7.9543303446977944e-06 0 -2.4505924211351242e-05 -1.1225148445115192e-05 0 -1.8503727423918131e-05 -2.6181343962186728e-05 0 -1.5923224312842525e-05 -2.1766966784657333e-05 0 -2.0373200872886348e-05 -2.6196117495871127e-05 0 -3.760920189120691e-05 -3.1301023212569112e-05 0 -3.5150876949001467e-05 -2.7984356929593793e-05 0 -3.6286822515568091e-05 -2.7874517606795672e-05 0 -4.2946377957539505e-05 -1.9481082950783678e-05 0 -4.9396466909071511e-05 -2.5491641451028975e-05 0 -4.2417517548121097e-05 -2.1699355231453485e-05 0 -8.1211530451796548e-05 4.4651934197289056e-05 0 -6.8992175302637186e-05 3.1529268553369073e-05 0 -6.6643903715347665e-05 3.6577203758158599e-05 0 -1.0397420563336115e-05 -5.0725486126621874e-06 0 -1.568067387064805e-05 -9.8461454985110532e-06 0 -1.1489573011167889e-05 -1.2422989636258418e-05 0 -1.8503727423918131e-05 -2.6181343962186728e-05 0 -2.2178926132119382e-05 -3.0410064719818424e-05 0 -2.0450199008350176e-05 -3.0029690474332793e-05 0 -2.5347342203800964e-05 -1.3514290057421713e-05 0 -2.5412459683608205e-05 -1.1236787640985784e-05 0 -3.0868996300885986e-05 -1.5315158094556054e-05 0 -1.8890416170177205e-06 7.1760817354603568e-07 0 -7.6971760859730756e-07 3.3247173439639194e-07 0 -8.9168234083696953e-07 4.0260615094698579e-07 0 -9.7715673173784642e-06 3.8066510792215817e-06 0 -1.3601077936498008e-05 5.3274765261304388e-06 0 -1.1540931518424684e-05 2.2565178730816699e-06 0 -5.2512989128014154e-06 2.3259601250457558e-06 0 -7.6453286792021824e-06 2.1920501538659202e-06 0 -6.0615281200328825e-06 1.059396616189506e-06 0 -1.2435314287227096e-05 8.6195826868022136e-06 0 -1.5611606721766323e-05 3.2485563565780599e-06 0 -1.5106412970634783e-05 -2.1024763257245804e-07 0 -1.2388631284092904e-05 -3.4970778887663088e-06 0 -9.4416999042378784e-06 -2.0809595609428505e-06 0 -8.9786485732540182e-06 -2.9437336212699165e-06 0 -6.2245305429581725e-06 -1.3302223398746122e-06 0 -8.9786485732540182e-06 -2.9437336212699165e-06 0 -9.4416999042378784e-06 -2.0809595609428505e-06 0 -8.38674807646696e-06 6.1605034043415402e-07 0 -1.2777033773910311e-05 1.2428463201387538e-06 0 -1.2450134770155542e-05 2.6299414923966852e-06 0 -1.7255431950958403e-05 3.0222876913698952e-06 0 -1.2450134770155542e-05 2.6299414923966852e-06 0 -1.2777033773910311e-05 1.2428463201387538e-06 0 -6.1466891785913355e-05 -4.2065529598930775e-05 0 -6.6939696875824723e-05 -5.2646493482634175e-05 0 -5.7003243331383305e-05 -4.574731984074469e-05 0 -2.8768911315556546e-05 6.915865179604226e-05 0 -3.6839971528818905e-05 5.1603320328019644e-05 0 -2.5672563700760113e-05 4.8298424269204564e-05 0 -1.3489687850840848e-05 -5.7472956728839952e-05 0 -2.0692489248432397e-05 -5.2610317328399363e-05 0 -2.2645163304721882e-05 -6.6247689238432445e-05 0 -2.7245209942926729e-05 -3.7433659569581371e-05 0 -2.9682416689269777e-05 -3.6854631150536426e-05 0 -2.9198563392688226e-05 -3.990968678976773e-05 0 -8.7945649470034369e-06 -8.3792746865031491e-07 0 -1.1664068602492845e-05 -2.1725424958953829e-06 0 -9.2151496761118645e-06 -1.1086166321615525e-06 0 -1.5927334423068406e-05 -3.356271014689387e-06 0 -1.2337916854544593e-05 3.0268212304406772e-08 0 -1.3276177079048586e-05 -2.6667969566316155e-06 0 -2.0505447642984611e-05 -6.3603713495405513e-06 0 -1.6396060997868557e-05 -4.2098711962347834e-06 0 -1.9588292579455664e-05 -5.7484351157070433e-06 0 -2.085882761990369e-05 0.00012530263365172599 0 -1.0245900293093502e-06 0.00013384565948174472 0 -1.1690911680064786e-05 0.00014997501425136831 0 -1.3466750606120945e-09 2.2783501755154449e-10 0 -1.4428025080835845e-06 5.9493731265540397e-07 0 -8.9168234083696953e-07 4.0260615094698579e-07 0 -3.0797878756826986e-05 -2.5889035222972097e-05 0 -2.8750036263981426e-05 -2.6275396459455985e-05 0 -2.7819510436007697e-05 -2.203307800295351e-05 0 -1.0397420563336115e-05 -5.0725486126621874e-06 0 -1.028673805132332e-05 9.2417664222204883e-06 0 -1.5106412970634783e-05 -2.1024763257245804e-07 0 -0.0001132628171739383 0.00010611077959511723 0 -0.00010353602263670327 8.2129438723686923e-05 0 -9.213131878599996e-05 9.1094919255845386e-05 0 -1.4291194818328854e-06 5.1237258444220036e-07 0 -1.6725052380227721e-06 4.3745452716016302e-07 0 -9.1942100782400467e-07 1.8814198017895013e-07 0 -4.4595410183065579e-06 1.2576761888990773e-07 0 -2.1050922389217217e-06 3.6355036359501178e-07 0 -2.1045565493727283e-06 1.5210313784420906e-07 0 -5.0913973034686558e-06 -9.6080001928624202e-07 0 -2.5061304795371228e-06 -6.9142612655884626e-07 0 -2.2884489589727118e-06 -8.731653497727266e-07 0 -6.1459644401250245e-06 2.4791613756852853e-06 0 -5.1013730003946075e-06 1.8356056694904145e-06 0 -6.3461003161648131e-06 1.2672853592411114e-06 0 -3.7671526605014178e-05 -2.0747420090232535e-05 0 -3.6416237829855736e-05 -1.696026930820279e-05 0 -4.2417517548121097e-05 -2.1699355231453485e-05 0 -5.5828037335966561e-05 3.5248825904844175e-05 0 -6.6643903715347665e-05 3.6577203758158599e-05 0 -5.5203115801651905e-05 2.7014230917391283e-05 0 -2.398928392250192e-05 0.00021340631074453635 0 -1.2984048893610219e-05 0.00018779929561045042 0 -3.1754949905026549e-06 0.00020188533484443162 0 -6.2254217639862679e-05 -0.00010214329636141607 0 -6.5192499072347354e-05 -8.9454270273720641e-05 0 -7.1149538313310492e-05 -9.7863171427536711e-05 0 -9.0758375371863147e-06 -1.3037111622624818e-05 0 -1.1489573011167889e-05 -1.2422989636258417e-05 0 -1.4605108330991702e-05 -1.8107491697063298e-05 0 -1.5268120421333644e-05 9.5671817321100396e-06 0 -1.7645146010532666e-05 1.6113284183420736e-05 0 -2.1721923312045605e-05 1.324728571913277e-05 0 -1.6164530289946208e-05 -1.5361670867245244e-05 0 -1.4605108330991702e-05 -1.8107491697063298e-05 0 -1.1489573011167889e-05 -1.2422989636258418e-05 0 -5.4018948771864775e-06 1.0856206216435366e-06 0 -4.8751755033301634e-06 9.1272050216662589e-07 0 -6.6786095109592283e-06 4.3022282866128009e-07 0 -1.5378404315870247e-06 1.7480865335100225e-07 0 -1.161910815341943e-06 -2.3185783543015919e-07 0 -7.462636556129063e-07 -1.9806698409889027e-08 0 -1.1538256983776507e-05 -2.4980346778840478e-06 0 -9.6590133541912068e-06 -1.5276724516458102e-06 0 -9.2151496761118645e-06 -1.1086166321615525e-06 0 -1.3207564847378439e-05 6.3901392383201016e-06 0 -1.5611606721766323e-05 3.2485563565780599e-06 0 -1.0636107437633124e-05 1.1379903087242455e-05 0 -1.2435314287227096e-05 8.6195826868022136e-06 0 -1.0636107437633124e-05 1.1379903087242455e-05 0 -1.5611606721766323e-05 3.2485563565780599e-06 0 -5.3709853013053025e-05 -8.1462059426975819e-05 0 -6.5192499072347354e-05 -8.9454270273720655e-05 0 -5.6545112674771519e-05 -9.3227310771943614e-05 0 -6.2254217639862679e-05 -0.00010214329636141607 0 -5.6545112674771519e-05 -9.3227310771943614e-05 0 -6.5192499072347354e-05 -8.9454270273720655e-05 0 -3.1601386385580308e-05 0.00017006511220519113 0 -1.2984048893610219e-05 0.00018779929561045042 0 -3.3369367211312808e-05 0.00019646246935984171 0 -2.398928392250192e-05 0.00021340631074453635 0 -3.3369367211312808e-05 0.00019646246935984171 0 -1.2984048893610219e-05 0.00018779929561045042 0 -3.1601386385580308e-05 0.00017006511220519113 0 -3.2252478436741561e-05 0.00014428531776836145 0 -1.1690911680064786e-05 0.00014997501425136831 0 -2.085882761990369e-05 0.00012530263365172599 0 -1.1690911680064786e-05 0.00014997501425136831 0 -3.2252478436741561e-05 0.00014428531776836145 0 -1.1253919982173747e-09 1.7443353292607619e-10 0 -1.1899770555560708e-09 1.9765572659441413e-10 0 -7.6971760859730756e-07 3.3247173439639194e-07 0 -1.1873605726840908e-05 -1.7191229501293023e-05 0 -1.4605108330991702e-05 -1.8107491697063302e-05 0 -1.5923224312842525e-05 -2.1766966784657333e-05 0 -1.8602820481048394e-05 -2.272007527703637e-05 0 -1.5923224312842525e-05 -2.1766966784657333e-05 0 -1.4605108330991702e-05 -1.8107491697063298e-05 0 -5.5945842082114495e-05 -6.3483384055494006e-05 0 -5.875235464360672e-05 -5.5685864720238108e-05 0 -6.4266549856924597e-05 -6.6736725449650201e-05 0 -6.6939696875824723e-05 -5.2646493482634175e-05 0 -5.875235464360672e-05 -5.5685864720238108e-05 0 -5.7003243331383305e-05 -4.574731984074469e-05 0 -0.0001132628171739383 0.00010611077959511723 0 -9.213131878599996e-05 9.1094919255845386e-05 0 -9.3780430377648612e-05 0.00011438306689433196 0 -6.2662975967975262e-06 5.6554909668215364e-06 0 -6.4467684164172819e-06 7.6665726150027612e-06 0 -5.2860358907045673e-06 6.1862734489998985e-06 0 -5.7065123012968325e-06 9.2904928194886115e-06 0 -5.2860358907045673e-06 6.1862734489998985e-06 0 -6.4467684164172819e-06 7.6665726150027612e-06 0 -3.5010200641378338e-06 1.0947084313406011e-06 0 -4.2150788022158923e-06 1.3177595408938602e-06 0 -3.2290070029020839e-06 1.2313321214704786e-06 0 -1.8890416170177205e-06 7.1760817354603568e-07 0 -8.9168234083696932e-07 4.0260615094698579e-07 0 -1.4428025080835845e-06 5.9493731265540397e-07 0 -2.2348041613330501e-05 4.0725997404976108e-06 0 -2.9878958654411951e-05 7.1426968752548079e-06 0 -2.3968586029028115e-05 5.3844224613559661e-06 0 -1.6068022843099468e-05 -4.2928791481286272e-06 0 -1.6748035732802676e-05 -5.2382499238929523e-06 0 -2.0441573500673078e-05 -6.4315136697565043e-06 0 -1.6068022843099468e-05 -4.2928791481286272e-06 0 -1.9588292579455664e-05 -5.7484351157070433e-06 0 -1.6396060997868557e-05 -4.2098711962347834e-06 0 1.4566025967889986e-05 0.00017906917138805952 0 -3.1754949905026549e-06 0.00020188533484443162 0 -1.2984048893610219e-05 0.00018779929561045042 0 -7.7598973664034935e-05 -8.9416584951347179e-05 0 -7.1149538313310492e-05 -9.7863171427536725e-05 0 -6.5192499072347354e-05 -8.9454270273720655e-05 0 -1.1296016384775939e-09 2.0918184978999438e-11 0 -7.462636556129063e-07 -1.9806698409889053e-08 0 -1.161910815341943e-06 -2.3185783543015919e-07 0 -5.2512989128014154e-06 2.3259601250457558e-06 0 -7.1723503824938286e-06 4.1752230226887565e-06 0 -7.6453286792021824e-06 2.1920501538659202e-06 0 -4.097932113996802e-05 -5.4246576221700111e-05 0 -4.4168727219822536e-05 -4.5935405271261001e-05 0 -4.8227197684262153e-05 -5.4311078331808693e-05 0 -1.6969605721514297e-05 4.6074014158704355e-06 0 -1.3601077936498008e-05 5.327476526130438e-06 0 -1.9321064032876237e-05 8.0859064471532394e-06 0 -1.9466654903407108e-05 -1.3059176423827944e-05 0 -2.3979061234014155e-05 -1.55212882391946e-05 0 -2.2970244747295684e-05 -1.8426198284246633e-05 0 -5.2654134282289594e-06 4.8443744997038578e-06 0 -5.2860358907045673e-06 6.1862734489998985e-06 0 -5.7625342860344551e-06 7.4673677095379323e-06 0 -5.411841646114345e-05 0.00010740342233433558 0 -7.2665371427065763e-05 0.00011162138597317599 0 -6.2690411710763353e-05 9.2147640908662131e-05 0 -3.7671526605014178e-05 -2.0747420090232535e-05 0 -4.5592408003860494e-05 -2.6596186092452067e-05 0 -3.9645023969546478e-05 -2.6117484248855361e-05 0 -5.5828037335966561e-05 3.5248825904844175e-05 0 -5.9835393725183884e-05 4.6558541125224589e-05 0 -7.1794959527046845e-05 4.8127425652637799e-05 0 -3.1114973089606899e-05 -3.9507919689565179e-05 0 -2.9909557747158928e-05 -4.2330078816342087e-05 0 -2.9198563392688226e-05 -3.990968678976773e-05 0 -2.832404155294337e-05 -4.2136978351416568e-05 0 -2.9198563392688226e-05 -3.990968678976773e-05 0 -2.9909557747158928e-05 -4.2330078816342087e-05 0 -2.0505447642984611e-05 -6.3603713495405513e-06 0 -1.6650713909290731e-05 -4.5452672608681026e-06 0 -1.6396060997868557e-05 -4.2098711962347834e-06 0 -1.3136163427930473e-05 -2.7475887998639667e-06 0 -1.6396060997868557e-05 -4.2098711962347834e-06 0 -1.6650713909290731e-05 -4.5452672608681026e-06 0 -1.1314865575123531e-05 -3.0093180121161446e-06 0 -1.3933608879336212e-05 -5.5033849304784253e-06 0 -1.2369379760379923e-05 -4.1593870483157959e-06 0 -2.4290430492981892e-05 -8.0646558735507243e-06 0 -3.0277580899709738e-05 -1.1418932716712047e-05 0 -2.5702139597948651e-05 -9.1771503585244545e-06 0 -2.6184824430328546e-05 6.9487131618165244e-06 0 -2.6856394695512867e-05 5.9551946097136714e-06 0 -2.0413679062324085e-05 4.2219676154960957e-06 0 -3.3579064770576386e-05 -4.33035765326921e-05 0 -3.0561675836384111e-05 -4.4237164032742803e-05 0 -3.1846952075091691e-05 -4.1768412014539582e-05 0 -5.411841646114345e-05 0.00010740342233433558 0 -6.6479986057758962e-05 0.00013622195426733332 0 -7.2665371427065763e-05 0.00011162138597317599 0 -1.1899770555560708e-09 1.9765572659441413e-10 0 -1.3466750606120945e-09 2.2783501755154449e-10 0 -8.9168234083696953e-07 4.0260615094698579e-07 0 1.5341035021454511e-05 0.00015160576335385999 0 -1.1690911680064786e-05 0.00014997501425136831 0 -1.0245900293093502e-06 0.00013384565948174472 0 -6.5911084735908851e-06 1.4534304531679413e-05 0 -5.0785128052259489e-06 1.808645562386453e-05 0 -5.7713225422888551e-06 1.2960792329033592e-05 0 -5.5828037335966561e-05 3.5248825904844175e-05 0 -4.5478116673321829e-05 3.3464886034518429e-05 0 -5.9835393725183884e-05 4.6558541125224589e-05 0 -6.5911084735908851e-06 1.4534304531679413e-05 0 -6.7839921025265471e-06 1.0705626896881338e-05 0 -9.0360082380087278e-06 1.0571226793251064e-05 0 -6.5911084735908851e-06 1.4534304531679413e-05 0 -5.7713225422888551e-06 1.296079232903359e-05 0 -6.7839921025265471e-06 1.0705626896881338e-05 0 -1.5265434527049461e-05 -4.1464384019711433e-06 0 -1.9178665739820593e-05 -6.2802702314678806e-06 0 -1.778580977628491e-05 -6.3950323680859877e-06 0 -7.3014372255151128e-06 -2.5403695429130165e-07 0 -9.2151496761118645e-06 -1.1086166321615525e-06 0 -9.6590133541912068e-06 -1.52767245164581e-06 0 -7.5905712215816324e-05 9.0610119624372096e-05 0 -9.3780430377648612e-05 0.00011438306689433196 0 -9.213131878599996e-05 9.1094919255845386e-05 0 -1.7575465779038708e-05 -9.4238475806114609e-06 0 -1.9165909806931575e-05 -7.8516302856903217e-06 0 -1.5974298670889354e-05 -5.8629138431171588e-06 0 -1.3207564847378439e-05 6.3901392383201016e-06 0 -1.0636107437633124e-05 1.1379903087242455e-05 0 -9.0360082380087278e-06 1.0571226793251064e-05 0 -3.004114430351077e-05 -2.1815472909036001e-05 0 -2.7535216186672215e-05 -1.8092421418187156e-05 0 -2.8861540189166073e-05 -1.7596171306343275e-05 0 -3.7671526605014178e-05 -2.0747420090232535e-05 0 -4.2417517548121097e-05 -2.1699355231453485e-05 0 -4.5592408003860494e-05 -2.6596186092452067e-05 0 -5.5828037335966561e-05 3.5248825904844175e-05 0 -7.1794959527046845e-05 4.8127425652637799e-05 0 -6.6643903715347665e-05 3.6577203758158599e-05 0 -9.4629312820138857e-05 0.00021279069527711187 0 -0.0001136387117546687 0.00022316284151061494 0 -0.00010977960444000013 0.00019850639939494335 0 -3.2486514852885775e-05 -9.877294355158289e-05 0 -2.5551070651050971e-05 -0.00010230572289307493 0 -2.5013822627683487e-05 -9.056265120239697e-05 0 -3.4112443633276939e-05 -2.5467602145973622e-05 0 -3.166195245463077e-05 -2.1930641695987412e-05 0 -3.437067575305733e-05 -2.4165237499591875e-05 0 -5.7065123012968325e-06 9.2904928194886115e-06 0 -5.7625342860344551e-06 7.4673677095379323e-06 0 -5.2860358907045673e-06 6.1862734489998985e-06 0 -1.4895537096808937e-05 2.4580958714308194e-06 0 -2.0413679062324085e-05 4.2219676154960957e-06 0 -1.764434505542477e-05 2.3283444985387283e-06 0 -2.9617117148720284e-05 -1.213276610698029e-05 0 -2.3913647991794184e-05 -8.8663327436881524e-06 0 -2.5702139597948651e-05 -9.1771503585244545e-06 0 -4.3569278974401349e-05 1.8212028803614026e-05 0 -3.5683753668132145e-05 1.6496360866718319e-05 0 -4.402150479806996e-05 2.4424453673310553e-05 0 -1.6631756543860196e-05 -1.0559096670961653e-05 0 -1.8987454508900405e-05 -1.5467945714790231e-05 0 -1.8223095730096279e-05 -1.3479518121165781e-05 0 -2.1390752462209146e-05 -8.3660854755919881e-06 0 -2.3913647991794184e-05 -8.8663327436881508e-06 0 -2.5412459683608205e-05 -1.1236787640985784e-05 0 -1.3207564847378439e-05 6.3901392383201016e-06 0 -1.1881194261084573e-05 4.7827613252623163e-06 0 -1.6262499689172738e-05 1.2032922198768341e-06 0 -1.1296016384775939e-09 2.0918184978999438e-11 0 -1.1061514828275818e-09 -4.5773631084139742e-11 0 -7.462636556129063e-07 -1.9806698409889027e-08 0 -3.4329203425736823e-05 -2.9378215468915827e-05 0 -3.5150876949001467e-05 -2.7984356929593793e-05 0 -3.760920189120691e-05 -3.1301023212569112e-05 0 -3.6642980369384699e-05 -1.4992855019660399e-05 0 -3.4940206494805671e-05 -1.4540022489469742e-05 0 -3.0277580899709738e-05 -1.1418932716712047e-05 0 -5.7355211730852105e-05 2.2288862572914155e-05 0 -4.520287982894486e-05 1.5723990664211982e-05 0 -5.3451310159462384e-05 2.1728801623381958e-05 0 -4.987547862609021e-05 -4.5043833829275262e-05 0 -5.7003243331383305e-05 -4.574731984074469e-05 0 -5.875235464360672e-05 -5.5685864720238108e-05 0 -2.7844081799399166e-05 -2.1707200099269857e-05 0 -2.7465653332974301e-05 -2.6316943384781979e-05 0 -2.2970244747295684e-05 -1.8426198284246633e-05 0 -2.2227624221494822e-05 -2.1912513888489036e-05 0 -2.2970244747295684e-05 -1.8426198284246633e-05 0 -2.7465653332974301e-05 -2.6316943384781979e-05 0 -2.1390752462209146e-05 -8.3660854755919881e-06 0 -2.1076568623767869e-05 -9.5052379252868887e-06 0 -1.778580977628491e-05 -6.3950323680859877e-06 0 -3.004114430351077e-05 -2.1815472909036001e-05 0 -2.8861540189166073e-05 -1.7596171306343275e-05 0 -3.166195245463077e-05 -2.1930641695987412e-05 0 -5.5945842082114495e-05 -6.3483384055494006e-05 0 -4.829355346475005e-05 -6.2365586669180619e-05 0 -4.8227197684262153e-05 -5.4311078331808693e-05 0 -2.1390752462209146e-05 -8.3660854755919881e-06 0 -1.778580977628491e-05 -6.3950323680859877e-06 0 -1.9178665739820593e-05 -6.2802702314678806e-06 0 -2.6469205648282329e-05 -1.4557472565459242e-05 0 -2.8861540189166073e-05 -1.7596171306343275e-05 0 -2.7535216186672215e-05 -1.8092421418187156e-05 0 -2.1410098595237283e-06 -3.6190827063246136e-07 0 -2.1100944191110703e-06 6.569303935841646e-08 0 -2.8792242553879736e-06 6.0354310085187876e-08 0 -4.9396466909071511e-05 -2.5491641451028975e-05 0 -4.5592408003860494e-05 -2.6596186092452067e-05 0 -4.2417517548121097e-05 -2.1699355231453485e-05 0 -8.1211530451796548e-05 4.4651934197289056e-05 0 -6.6643903715347665e-05 3.6577203758158599e-05 0 -7.1794959527046845e-05 4.8127425652637799e-05 0 -7.7598973664034935e-05 -8.9416584951347179e-05 0 -6.5192499072347354e-05 -8.9454270273720655e-05 0 -6.9940621892013632e-05 -8.3009713228424472e-05 0 1.4566025967889986e-05 0.00017906917138805952 0 -1.2984048893610219e-05 0.00018779929561045042 0 -5.6253479202411583e-06 0.00016826491546631183 0 1.5341035021454511e-05 0.00015160576335385999 0 -5.6253479202411583e-06 0.00016826491546631183 0 -1.1690911680064786e-05 0.00014997501425136831 0 -7.7598973664034935e-05 -8.9416584951347179e-05 0 -7.9302333482129586e-05 -0.00010228668190352177 0 -7.1149538313310492e-05 -9.7863171427536711e-05 0 1.4566025967889986e-05 0.00017906917138805952 0 1.3056372877056007e-05 0.00020637536654803958 0 -3.1754949905026549e-06 0.00020188533484443162 0 -1.6164530289946208e-05 -1.5361670867245244e-05 0 -1.5680673870648053e-05 -9.8461454985110532e-06 0 -1.9256625558476825e-05 -1.4663297604157143e-05 0 -3.1630119174533571e-05 -2.0320205861576153e-05 0 -3.437067575305733e-05 -2.4165237499591875e-05 0 -3.166195245463077e-05 -2.1930641695987412e-05 0 -4.2917664921052567e-05 -4.0795558336214317e-05 0 -4.3940461449000351e-05 -4.2874967766485557e-05 0 -4.2077796957869188e-05 -3.9401804835043525e-05 0 -2.1308604464426344e-05 -3.2005562083060092e-05 0 -2.4277841589703432e-05 -3.7731981375662553e-05 0 -2.3597769149768732e-05 -3.5376818303083492e-05 0 -5.5828037335966561e-05 3.5248825904844175e-05 0 -4.402150479806996e-05 2.4424453673310553e-05 0 -4.5478116673321829e-05 3.3464886034518429e-05 0 -1.3136163427930473e-05 -2.7475887998639667e-06 0 -1.0505386689265323e-05 -1.5646750064459376e-06 0 -1.2649462683262031e-05 -2.587427229695727e-06 0 -3.6873983007878709e-06 1.7343820562119808e-06 0 -4.2150788022158923e-06 1.3177595408938602e-06 0 -5.1013730003946075e-06 1.8356056694904145e-06 0 -8.4090433120770263e-05 0.00013216753619046479 0 -7.2665371427065763e-05 0.00011162138597317599 0 -6.6479986057758962e-05 0.00013622195426733332 0 -2.8513880728355398e-05 -6.0456462923723929e-05 0 -2.2645163304721882e-05 -6.6247689238432445e-05 0 -2.0692489248432397e-05 -5.2610317328399363e-05 0 -1.5378404315870247e-06 1.7480865335100225e-07 0 -7.462636556129063e-07 -1.9806698409889027e-08 0 -9.1942100782400467e-07 1.8814198017895013e-07 0 -2.5347342203800964e-05 -1.3514290057421713e-05 0 -2.0275173997848371e-05 -1.103003893230854e-05 0 -2.1076568623767869e-05 -9.5052379252868887e-06 0 1.5291446807511467e-05 0.00012429324141682548 0 1.5341035021454511e-05 0.00015160576335385996 0 -1.0245900293093502e-06 0.00013384565948174472 0 -4.7124021234357046e-06 -6.0174811870098991e-07 0 -5.1120434427381276e-06 4.791993722698976e-08 0 -6.5645478532403628e-06 -2.6296019312293956e-07 0 -1.6164530289946208e-05 -1.5361670867245244e-05 0 -1.9256625558476825e-05 -1.4663297604157143e-05 0 -1.8722404744149056e-05 -1.9474048303172528e-05 0 -2.1883907523554254e-05 -1.9684364455543276e-05 0 -1.8722404744149056e-05 -1.9474048303172528e-05 0 -1.9256625558476825e-05 -1.4663297604157143e-05 0 -3.9710628746553124e-05 -3.7907876029597829e-05 0 -4.0695302404748882e-05 -3.6989986071444368e-05 0 -4.2077796957869188e-05 -3.9401804835043525e-05 0 -4.2917664921052567e-05 -4.0795558336214317e-05 0 -4.2077796957869188e-05 -3.9401804835043525e-05 0 -4.0695302404748882e-05 -3.6989986071444368e-05 0 -2.1308604464426344e-05 -3.2005562083060092e-05 0 -2.3323126626523205e-05 -3.5403013222112309e-05 0 -2.4277841589703432e-05 -3.7731981375662553e-05 0 -2.5777572677331633e-05 -4.0215132600058138e-05 0 -2.4277841589703432e-05 -3.7731981375662553e-05 0 -2.3323126626523205e-05 -3.5403013222112315e-05 0 -6.2662975967975262e-06 5.6554909668215364e-06 0 -5.3183796212837995e-06 4.1801134871424154e-06 0 -7.4674836261823101e-06 3.7154892591743032e-06 0 -1.0397420563336115e-05 -5.0725486126621874e-06 0 -1.5106412970634783e-05 -2.1024763257245804e-07 0 -1.5680673870648053e-05 -9.8461454985110532e-06 0 -1.9143044507604192e-05 -6.6995281299038662e-06 0 -1.5680673870648053e-05 -9.8461454985110532e-06 0 -1.5106412970634783e-05 -2.1024763257245804e-07 0 -5.5945842082114495e-05 -6.3483384055494006e-05 0 -6.4266549856924597e-05 -6.6736725449650201e-05 0 -6.2022323021442599e-05 -7.5837113412549628e-05 0 -2.0505447642984611e-05 -6.3603713495405513e-06 0 -2.3913647991794184e-05 -8.8663327436881524e-06 0 -1.9178665739820593e-05 -6.2802702314678806e-06 0 -2.1390752462209146e-05 -8.3660854755919881e-06 0 -1.9178665739820593e-05 -6.2802702314678806e-06 0 -2.3913647991794184e-05 -8.8663327436881524e-06 0 -1.8913010651980471e-05 -1.80923822314332e-05 0 -2.5663032585503213e-05 -1.4827261145657457e-05 0 -2.4111446339963768e-05 -1.3489610258939208e-05 0 -3.8299438863358367e-05 -3.4172881158544165e-05 0 -4.0695302404748882e-05 -3.6989986071444368e-05 0 -3.7914323607384606e-05 -3.5563206432924653e-05 0 -2.3391554715447726e-05 -3.3581931829844998e-05 0 -2.5421450160800345e-05 -3.7119314975008364e-05 0 -2.3323126626523205e-05 -3.5403013222112315e-05 0 -5.4018948771864775e-06 1.0856206216435366e-06 0 -5.1013730003946067e-06 1.8356056694904147e-06 0 -4.2150788022158923e-06 1.3177595408938602e-06 0 -3.0561675836384111e-05 -4.4237164032742803e-05 0 -2.9909557747158928e-05 -4.2330078816342087e-05 0 -3.1846952075091691e-05 -4.1768412014539582e-05 0 -4.7063626814373028e-06 7.542358686067477e-07 0 -3.4192466217576746e-06 9.5645775780945311e-07 0 -3.1057503117202569e-06 8.5910626017068667e-07 0 -2.6469205648282329e-05 -1.4557472565459242e-05 0 -2.4505924211351242e-05 -1.122514844511519e-05 0 -2.5979907692421087e-05 -1.2304566042760864e-05 0 -1.5378404315870247e-06 1.7480865335100225e-07 0 -2.1538812235670687e-06 5.0606292567612795e-07 0 -2.1100944191110698e-06 6.569303935841642e-08 0 -5.2443967461452502e-05 0.00014869828443564361 0 -4.3577717017403072e-05 0.00012734636381909781 0 -3.2252478436741561e-05 0.00014428531776836145 0 -5.4500379726477668e-05 0.00019614349746926475 0 -3.3369367211312802e-05 0.00019646246935984171 0 -4.2892995016818595e-05 0.00021364909546202433 0 -4.7659607781524801e-05 -9.3392325785378522e-05 0 -5.6545112674771519e-05 -9.3227310771943614e-05 0 -5.3885763346479312e-05 -0.000101531683060749 0 1.7809313724195714e-08 2.7235757950225067e-05 0 -1.028673805132332e-05 9.2417664222204883e-06 0 -1.6805630516097398e-06 1.7684863701093358e-06 0 -1.5378404315870247e-06 1.7480865335100225e-07 0 -9.1942100782400467e-07 1.8814198017895013e-07 0 -1.6725052380227721e-06 4.3745452716016302e-07 0 -7.4929628421982366e-05 -7.6675901987729495e-05 0 -6.9940621892013632e-05 -8.3009713228424472e-05 0 -6.2022323021442599e-05 -7.5837113412549628e-05 0 -8.0310512293261179e-05 -0.00014887686762217033 0 -7.3066968755806702e-05 -0.00014275238852964667 0 -8.0378796368484132e-05 -0.0001380473083156168 0 2.1599803557180333e-06 0.00030865732235899263 0 -1.0709322214527609e-05 0.00030081515647128543 0 5.0299344285291532e-06 0.00028621575634906317 0 2.1599803557180333e-06 0.00030865732235899263 0 -1.8494493394976723e-05 0.00031462775431778954 0 -1.070932221452761e-05 0.00030081515647128543 0 -2.4717152131132714e-05 -0.00014371604272344653 0 -2.9529066184014616e-05 -0.00014104645913859328 0 -3.2622324307204362e-05 -0.00014680427124249531 0 -0.00013372198838195018 0.0003192618843997914 0 -0.00013382472919584848 0.00029443746370819206 0 -0.00011712393279310041 0.00030520880285821801 0 -8.0310512293261179e-05 -0.00014887686762217033 0 -6.9493348595642173e-05 -0.00014879684217872859 0 -7.3066968755806702e-05 -0.00014275238852964667 0 -2.4717152131132714e-05 -0.00014371604272344653 0 -2.3027840431538814e-05 -0.00013414796845125055 0 -2.9529066184014616e-05 -0.00014104645913859328 0 -0.00013372198838195018 0.0003192618843997914 0 -0.00011712393279310041 0.00030520880285821801 0 -0.0001089008986376289 0.00031914100051712605 0 -1.1061514828277185e-09 -4.5773631084143361e-11 0 -9.1942100782400467e-07 1.8814198017895013e-07 0 -7.462636556129063e-07 -1.9806698409889027e-08 0 -3.004114430351077e-05 -2.1815472909036001e-05 0 -2.7819510436007697e-05 -2.203307800295351e-05 0 -2.7535216186672215e-05 -1.8092421418187156e-05 0 -2.1390752462209146e-05 -8.3660854755919881e-06 0 -2.5412459683608205e-05 -1.1236787640985784e-05 0 -2.1076568623767869e-05 -9.5052379252868887e-06 0 -5.5945842082114495e-05 -6.3483384055494006e-05 0 -5.2382522453139441e-05 -7.0449448254512355e-05 0 -4.829355346475005e-05 -6.2365586669180619e-05 0 -4.0435472565549224e-06 5.6036159193532795e-07 0 -6.0615281200328825e-06 1.059396616189506e-06 0 -5.1120434427381276e-06 4.791993722698976e-08 0 -5.9181331314946196e-05 0.00022925198995022358 0 -7.6329551313797316e-05 0.00024546519275300805 0 -7.665438479264328e-05 0.00022078630330347107 0 -4.7969924375662943e-05 -0.00010823340548684699 0 -4.1999360992510619e-05 -0.00011544135618221566 0 -4.0323083192057843e-05 -0.0001039860473728406 0 -4.0690955765471011e-05 -3.5215367969771936e-05 0 -4.193841861053109e-05 -3.8271879699868079e-05 0 -3.9964684581044398e-05 -3.4965070844881795e-05 0 -1.6857048021421171e-05 -2.463138020195926e-05 0 -2.0450199008350176e-05 -3.0029690474332793e-05 0 -1.9204958118725252e-05 -2.8442903237594741e-05 0 -5.5747403634135479e-06 -7.5018777444984627e-06 0 -1.1489573011167889e-05 -1.2422989636258418e-05 0 -9.0758375371863147e-06 -1.3037111622624818e-05 0 -2.5347342203800964e-05 -1.3514290057421713e-05 0 -2.1076568623767869e-05 -9.5052379252868887e-06 0 -2.5412459683608205e-05 -1.1236787640985784e-05 0 -3.7105788168952458e-05 -2.7027073475521065e-05 0 -3.9172176538352158e-05 -3.1378234912420235e-05 0 -3.6286822515568091e-05 -2.7874517606795672e-05 0 -1.1873605726840908e-05 -1.7191229501293023e-05 0 -1.5923224312842525e-05 -2.1766966784657333e-05 0 -1.4520206204442061e-05 -2.0971947334769921e-05 0 -4.097932113996802e-05 -5.4246576221700111e-05 0 -3.499313140537296e-05 -5.7614532463875299e-05 0 -3.403472286511612e-05 -4.6326472667734478e-05 0 -3.6873983007878709e-06 1.7343820562119808e-06 0 -3.2290070029020839e-06 1.2313321214704784e-06 0 -4.2150788022158923e-06 1.3177595408938602e-06 0 -3.2486514852885775e-05 -9.877294355158289e-05 0 -3.8813760436080596e-05 -9.11826817700819e-05 0 -4.0323083192057843e-05 -0.0001039860473728406 0 -9.4629312820138857e-05 0.00021279069527711187 0 -7.5297867175497867e-05 0.00019650652811266796 0 -7.665438479264328e-05 0.00022078630330347107 0 -1.8602820481048394e-05 -2.272007527703637e-05 0 -1.4605108330991702e-05 -1.8107491697063298e-05 0 -1.8722404744149056e-05 -1.9474048303172528e-05 0 -1.6164530289946208e-05 -1.5361670867245244e-05 0 -1.8722404744149056e-05 -1.9474048303172528e-05 0 -1.4605108330991702e-05 -1.8107491697063298e-05 0 -7.3014372255151128e-06 -2.5403695429130165e-07 0 -6.9699102532077372e-06 -1.3665948272851642e-07 0 -9.2151496761118645e-06 -1.1086166321615525e-06 0 -2.7844081799399166e-05 -2.1707200099269857e-05 0 -2.2970244747295681e-05 -1.8426198284246633e-05 0 -2.3979061234014155e-05 -1.55212882391946e-05 0 -2.6259134030653167e-05 -4.6016856264697867e-05 0 -1.9475066098390191e-05 -4.07087610081792e-05 0 -2.3164183650936418e-05 -3.1674982434234037e-05 0 -2.5828719304890039e-05 -1.7959968016460229e-05 0 -2.7535216186672215e-05 -1.8092421418187156e-05 0 -2.7819510436007697e-05 -2.203307800295351e-05 0 -1.4896044752016867e-05 -3.3378416938869516e-05 0 -1.9475066098390191e-05 -4.07087610081792e-05 0 -1.3458906232704053e-05 -4.523121961482947e-05 0 -1.8503727423918131e-05 -2.6181343962186728e-05 0 -2.0373200872886348e-05 -2.6196117495871127e-05 0 -2.2178926132119382e-05 -3.0410064719818424e-05 0 -2.3542397004497862e-05 -2.9079827386581249e-05 0 -2.2178926132119382e-05 -3.0410064719818424e-05 0 -2.0373200872886348e-05 -2.6196117495871127e-05 0 -9.4400357971513466e-06 -1.442889228703574e-06 0 -1.2216111776024468e-05 -2.7851570989193391e-06 0 -1.2649462683262031e-05 -2.587427229695727e-06 0 -1.3696806984263044e-05 -4.5135742513135548e-06 0 -1.5974298670889354e-05 -5.8629138431171588e-06 0 -1.3276177079048586e-05 -2.6667969566316155e-06 0 -1.5927334423068406e-05 -3.356271014689387e-06 0 -1.3276177079048586e-05 -2.6667969566316155e-06 0 -1.5974298670889354e-05 -5.8629138431171588e-06 0 -6.5911084735908851e-06 1.4534304531679413e-05 0 -1.0636107437633124e-05 1.1379903087242455e-05 0 -6.8445279068956464e-06 1.8535427130123525e-05 0 -1.2435314287227096e-05 8.6195826868022136e-06 0 -6.8445279068956464e-06 1.8535427130123525e-05 0 -1.0636107437633124e-05 1.1379903087242455e-05 0 1.5341035021454511e-05 0.00015160576335385999 0 1.4566025967889986e-05 0.00017906917138805952 0 -5.6253479202411583e-06 0.00016826491546631183 0 -8.9409450567185044e-06 8.3789420126360666e-06 0 -6.4467684164172819e-06 7.6665726150027612e-06 0 -8.171959143588031e-06 6.0234775953034463e-06 0 -7.4929628421982366e-05 -7.6675901987729495e-05 0 -7.7598973664034935e-05 -8.9416584951347179e-05 0 -6.9940621892013632e-05 -8.3009713228424472e-05 0 -8.7945649470034369e-06 -8.3792746865031491e-07 0 -9.2151496761118645e-06 -1.1086166321615525e-06 0 -6.9699102532077372e-06 -1.3665948272851642e-07 0 -1.1995510748979478e-05 4.4837743762239977e-07 0 -9.3069774263285447e-06 3.494476387147943e-08 0 -7.9745272359482342e-06 -5.2360332586060087e-07 0 -9.4400357971513466e-06 -1.442889228703574e-06 0 -6.5035873584548202e-06 -4.9687039543485468e-07 0 -7.182082108119004e-06 -1.0187592470975132e-06 0 -5.2512989128014154e-06 2.3259601250457558e-06 0 -3.7790800053282458e-06 1.7367997923469469e-06 0 -4.5418464453014922e-06 3.3394354844480289e-06 0 -5.3007892460742139e-06 -2.8596759455479823e-06 0 -4.3611167278720821e-06 -1.4675130737642035e-06 0 -2.2161807716143118e-06 -9.4418664460049145e-07 0 -3.2709538744338021e-09 2.7123189691894184e-10 0 -2.2161807716143118e-06 -9.4418664460049145e-07 0 -4.3611167278720821e-06 -1.4675130737642035e-06 0 -7.085299521798099e-06 3.2358870403364459e-06 0 -2.9867852445235915e-06 9.5046407494036651e-07 0 -5.9832257213643158e-06 1.2244661441828442e-06 0 -4.5696839409249625e-09 -6.180857565970833e-10 0 -5.9832257213643158e-06 1.2244661441828442e-06 0 -2.9867852445235915e-06 9.5046407494036651e-07 0 -2.7844081799399166e-05 -2.1707200099269857e-05 0 -3.3906863635795457e-05 -2.5312080465868338e-05 0 -3.2655406654507395e-05 -2.986017992205647e-05 0 -1.5378404315870247e-06 1.7480865335100225e-07 0 -1.6725052380227721e-06 4.3745452716016302e-07 0 -2.1538812235670687e-06 5.0606292567612795e-07 0 -2.085882761990369e-05 0.00012530263365172599 0 -2.4319054754829287e-06 0.00011607018168247995 0 -1.0245900293093502e-06 0.00013384565948174472 0 -2.187605553856539e-05 3.2979577756564993e-05 0 -2.4325599093603528e-05 2.4621595709872856e-05 0 -1.5837841524190254e-05 2.195578353913411e-05 0 -8.9409450567185044e-06 8.3789420126360666e-06 0 -6.7839921025265471e-06 1.0705626896881338e-05 0 -6.4467684164172819e-06 7.6665726150027612e-06 0 -2.9933688659149467e-05 -3.5929872600246469e-05 0 -2.7465653332974301e-05 -2.6316943384781979e-05 0 -3.2655406654507395e-05 -2.986017992205647e-05 0 -8.4629455336103748e-05 0.00031869598068870762 0 -0.0001089008986376289 0.00031914100051712605 0 -9.6603511892492339e-05 0.00030644964418152586 0 -4.0676519138230954e-05 -0.00014794809870391365 0 -3.2622324307204362e-05 -0.00014680427124249531 0 -3.6482717698707302e-05 -0.0001428554568893905 0 -1.8494493394976723e-05 0.00031462775431778954 0 -3.9437928112194068e-05 0.000317168689515123 0 -2.8571198423232687e-05 0.00030476855667209944 0 -6.9493348595642173e-05 -0.00014879684217872859 0 -5.907502428366045e-05 -0.00014853908702788701 0 -6.4174855993365761e-05 -0.00014328385037480892 0 -3.5357160641426438e-05 -3.5178493618144841e-05 0 -3.7914323607384606e-05 -3.5563206432924653e-05 0 -3.6470354604311892e-05 -3.7240263543012381e-05 0 -2.7245209942926729e-05 -3.7433659569581371e-05 0 -2.714709722306663e-05 -4.056805341402196e-05 0 -2.5421450160800345e-05 -3.7119314975008364e-05 0 -6.18165162187577e-09 -2.6426369516347584e-09 0 -2.2161807716143122e-06 -9.4418664460049166e-07 0 -3.2709538744338021e-09 2.7123189691894184e-10 0 -7.9106034733905194e-09 3.373401317136393e-09 0 -4.5696839409249625e-09 -6.180857565970833e-10 0 -2.9867852445235915e-06 9.5046407494036651e-07 0 -7.9106034733905194e-09 3.373401317136393e-09 0 -2.9867852445235915e-06 9.5046407494036651e-07 0 -7.085299521798099e-06 3.2358870403364459e-06 0 -6.18165162187577e-09 -2.6426369516347584e-09 0 -5.3007892460742139e-06 -2.8596759455479823e-06 0 -2.2161807716143118e-06 -9.4418664460049145e-07 0 -2.8513880728355398e-05 -6.0456462923723929e-05 0 -3.499313140537296e-05 -5.7614532463875293e-05 0 -3.6268852743028052e-05 -6.9786590584229916e-05 0 -1.1538256983776507e-05 -2.4980346778840478e-06 0 -1.4220744144313841e-05 -4.0967470190942321e-06 0 -1.2780951973748444e-05 -3.7729104463251953e-06 0 -2.6469205648282329e-05 -1.4557472565459242e-05 0 -2.7535216186672215e-05 -1.8092421418187156e-05 0 -2.5159976194242176e-05 -1.4183747004527608e-05 0 -2.5828719304890039e-05 -1.7959968016460229e-05 0 -2.5159976194242176e-05 -1.4183747004527608e-05 0 -2.7535216186672215e-05 -1.8092421418187156e-05 0 -7.3014372255151128e-06 -2.5403695429130165e-07 0 -9.6590133541912068e-06 -1.52767245164581e-06 0 -7.9457419685880244e-06 -5.895113147898292e-07 0 -3.5010200641378338e-06 1.0947084313406011e-06 0 -3.4192466217576746e-06 9.5645775780945311e-07 0 -4.8751755033301634e-06 9.1272050216662589e-07 0 -4.7063626814373028e-06 7.542358686067477e-07 0 -4.8751755033301634e-06 9.1272050216662589e-07 0 -3.4192466217576746e-06 9.5645775780945311e-07 0 -1.2435314287227096e-05 8.6195826868022136e-06 0 -1.028673805132332e-05 9.2417664222204883e-06 0 -6.8445279068956464e-06 1.8535427130123525e-05 0 1.7809313724195714e-08 2.7235757950225067e-05 0 -6.8445279068956455e-06 1.8535427130123528e-05 0 -1.028673805132332e-05 9.2417664222204883e-06 0 -3.8569713530773694e-05 -3.0467044801108927e-05 0 -3.2655406654507395e-05 -2.986017992205647e-05 0 -3.3906863635795457e-05 -2.5312080465868338e-05 0 -1.8602820481048394e-05 -2.272007527703637e-05 0 -2.0373200872886348e-05 -2.6196117495871127e-05 0 -1.5923224312842525e-05 -2.1766966784657333e-05 0 -3.4112443633276939e-05 -2.5467602145973622e-05 0 -3.6286822515568091e-05 -2.7874517606795672e-05 0 -3.5150876949001467e-05 -2.7984356929593793e-05 0 -5.4018948771864775e-06 1.0856206216435366e-06 0 -6.3461003161648131e-06 1.2672853592411114e-06 0 -5.1013730003946075e-06 1.8356056694904145e-06 0 -2.398928392250192e-05 0.00021340631074453635 0 -3.1754949905026549e-06 0.00020188533484443162 0 -5.8032597031184567e-06 0.00022054917059179888 0 -6.2254217639862679e-05 -0.00010214329636141607 0 -7.1149538313310492e-05 -9.7863171427536711e-05 0 -7.121450729247265e-05 -0.00010671165250754068 0 -1.8913010651980471e-05 -1.80923822314332e-05 0 -1.8223095730096279e-05 -1.3479518121165781e-05 0 -1.8987454508900405e-05 -1.5467945714790231e-05 0 -1.6164530289946208e-05 -1.5361670867245244e-05 0 -1.1489573011167889e-05 -1.2422989636258418e-05 0 -1.5680673870648053e-05 -9.8461454985110532e-06 0 -9.4629312820138857e-05 0.00021279069527711187 0 -0.00010977960444000013 0.00019850639939494335 0 -9.1460495352097416e-05 0.00019027367180750554 0 -3.2486514852885775e-05 -9.877294355158289e-05 0 -2.5013822627683487e-05 -9.056265120239697e-05 0 -3.1652329229627292e-05 -8.7881389331582796e-05 0 -2.8513880728355398e-05 -6.0456462923723929e-05 0 -2.987231741162213e-05 -7.1042279524613473e-05 0 -2.2645163304721882e-05 -6.6247689238432445e-05 0 -3.380783029411626e-05 -3.2480490961598532e-05 0 -3.3226857022174802e-05 -3.4485467615371263e-05 0 -3.1453477383676506e-05 -3.2290130928335533e-05 0 -2.3391554715447726e-05 -3.3581931829844998e-05 0 -2.0450199008350176e-05 -3.0029690474332793e-05 0 -2.2178926132119382e-05 -3.0410064719818424e-05 0 -9.7715673173784642e-06 3.8066510792215817e-06 0 -7.6453286792021824e-06 2.1920501538659202e-06 0 -7.1723503824938286e-06 4.1752230226887557e-06 0 -3.1114973089606899e-05 -3.9507919689565179e-05 0 -2.9198563392688226e-05 -3.990968678976773e-05 0 -2.9682416689269777e-05 -3.6854631150536426e-05 0 -8.7945649470034369e-06 -8.3792746865031491e-07 0 -6.9699102532077372e-06 -1.3665948272851642e-07 0 -6.7791131215851055e-06 -1.394381430399682e-07 0 -5.2756258705106524e-06 3.2449544938285787e-07 0 -6.7791131215851055e-06 -1.394381430399682e-07 0 -6.9699102532077372e-06 -1.3665948272851642e-07 0 -1.0228595676690695e-05 -2.1704351088644263e-07 0 -1.1700921685186539e-05 -2.3462730836546554e-06 0 -1.3276177079048586e-05 -2.6667969566316155e-06 0 -2.7844081799399166e-05 -2.1707200099269857e-05 0 -3.2655406654507395e-05 -2.986017992205647e-05 0 -2.7465653332974301e-05 -2.6316943384781979e-05 0 -7.3014372255151128e-06 -2.5403695429130165e-07 0 -7.9457419685880244e-06 -5.895113147898292e-07 0 -5.9885243493712161e-06 2.7310273659217836e-07 0 -6.8708803237931206e-06 1.9458565625053653e-08 0 -5.9885243493712161e-06 2.7310273659217836e-07 0 -7.9457419685880244e-06 -5.895113147898292e-07 0 -9.6590133541912068e-06 -1.52767245164581e-06 0 -8.9944130686570047e-06 -1.2275264521832691e-06 0 -7.9457419685880244e-06 -5.895113147898292e-07 0 -3.4411482705725183e-05 -3.939027752225021e-05 0 -3.6470354604311892e-05 -3.7240263543012381e-05 0 -3.7714959106641687e-05 -3.9771489961121543e-05 0 -3.9710628746553124e-05 -3.7907876029597829e-05 0 -3.7714959106641687e-05 -3.9771489961121543e-05 0 -3.6470354604311892e-05 -3.7240263543012381e-05 0 -2.5777572677331633e-05 -4.0215132600058138e-05 0 -2.714709722306663e-05 -4.056805341402196e-05 0 -2.7183119537169636e-05 -4.3644506360918769e-05 0 -2.832404155294337e-05 -4.2136978351416568e-05 0 -2.7183119537169636e-05 -4.3644506360918769e-05 0 -2.714709722306663e-05 -4.056805341402196e-05 0 -1.2435314287227096e-05 8.6195826868022136e-06 0 -1.5106412970634783e-05 -2.1024763257245809e-07 0 -1.028673805132332e-05 9.2417664222204883e-06 0 -1.9843257533947414e-05 0.0002892903442675029 0 -2.8571198423232687e-05 0.00030476855667209944 0 -4.0912276431650232e-05 0.00029601237982095546 0 -6.8105350705121816e-05 -0.00013669629346639862 0 -6.4174855993365761e-05 -0.00014328385037480892 0 -5.8157052022154148e-05 -0.00013897861618233768 0 -3.3000902574280996e-05 -0.00013606450033818183 0 -4.1264007107441551e-05 -0.0001390806100141715 0 -3.6482717698707302e-05 -0.0001428554568893905 0 -0.00010580235586131545 0.00029139846247504687 0 -8.2492209575922719e-05 0.00029645551227262888 0 -9.6603511892492339e-05 0.00030644964418152586 0 -9.4629312820138857e-05 0.00021279069527711187 0 -9.1460495352097416e-05 0.00019027367180750554 0 -7.5297867175497867e-05 0.00019650652811266796 0 -3.2486514852885775e-05 -9.877294355158289e-05 0 -3.1652329229627292e-05 -8.7881389331582796e-05 0 -3.8813760436080596e-05 -9.11826817700819e-05 0 -2.8513880728355398e-05 -6.0456462923723929e-05 0 -3.6268852743028052e-05 -6.9786590584229916e-05 0 -2.987231741162213e-05 -7.1042279524613473e-05 0 -1.3696806984263044e-05 -4.5135742513135548e-06 0 -1.3276177079048586e-05 -2.6667969566316155e-06 0 -1.1700921685186539e-05 -2.3462730836546554e-06 0 -3.9437928112194068e-05 0.000317168689515123 0 -4.0912276431650232e-05 0.00029601237982095546 0 -2.8571198423232687e-05 0.00030476855667209944 0 -5.907502428366045e-05 -0.00014853908702788701 0 -5.8157052022154148e-05 -0.00013897861618233768 0 -6.4174855993365761e-05 -0.00014328385037480892 0 -8.4629455336103748e-05 0.00031869598068870762 0 -9.6603511892492339e-05 0.00030644964418152586 0 -8.2492209575922719e-05 0.00029645551227262888 0 -4.0676519138230954e-05 -0.00014794809870391365 0 -3.6482717698707302e-05 -0.0001428554568893905 0 -4.1264007107441551e-05 -0.0001390806100141715 0 -3.1324337436459153e-05 -3.4786395389823254e-05 0 -3.1453477383676506e-05 -3.2290130928335533e-05 0 -3.3226857022174802e-05 -3.4485467615371263e-05 0 -1.4896044752016867e-05 -3.3378416938869516e-05 0 -2.3164183650936418e-05 -3.1674982434234037e-05 0 -1.9475066098390191e-05 -4.07087610081792e-05 0 -4.3940461449000351e-05 -4.2874967766485557e-05 0 -4.2074974349032294e-05 -4.037622605934413e-05 0 -4.2077796957869188e-05 -3.9401804835043525e-05 0 -2.3597769149768732e-05 -3.5376818303083492e-05 0 -2.4277841589703432e-05 -3.7731981375662553e-05 0 -2.5898516606181382e-05 -4.1252602493391261e-05 0 -3.5010200641378338e-06 1.0947084313406011e-06 0 -2.506362894625534e-06 8.6415503737110565e-07 0 -3.4192466217576746e-06 9.5645775780945311e-07 0 -0.00010224659108612275 0.00017234375088424336 0 -0.00010342320635445063 0.00014717157760075979 0 -8.6222722363402007e-05 0.00015170329588455153 0 -8.4090433120770263e-05 0.00013216753619046479 0 -8.6222722363402007e-05 0.00015170329588455153 0 -0.00010342320635445063 0.00014717157760075979 0 -2.9261305807724687e-05 -2.968577803519554e-05 0 -3.1695456620113202e-05 -2.9615996431021441e-05 0 -3.1453477383676506e-05 -3.2290130928335533e-05 0 -8.7479814175427531e-06 -7.8959259693923678e-07 0 -8.9944130686570047e-06 -1.2275264521832691e-06 0 -1.0401223672189273e-05 -2.2906819732391031e-06 0 -2.6469205648282329e-05 -1.4557472565459242e-05 0 -2.5159976194242176e-05 -1.4183747004527608e-05 0 -2.4505924211351242e-05 -1.1225148445115192e-05 0 -2.2998517211078323e-05 -9.6718230002897385e-06 0 -2.4505924211351242e-05 -1.1225148445115192e-05 0 -2.5159976194242176e-05 -1.4183747004527608e-05 0 -7.5759610140858739e-05 0.00017135595112156333 0 -7.5297867175497867e-05 0.00019650652811266796 0 -9.1460495352097416e-05 0.00019027367180750554 0 -3.5867596876343971e-05 -7.9925488782167238e-05 0 -3.8813760436080596e-05 -9.11826817700819e-05 0 -3.1652329229627292e-05 -8.7881389331582796e-05 0 -3.5867596876343971e-05 -7.9925488782167238e-05 0 -2.987231741162213e-05 -7.1042279524613473e-05 0 -3.6268852743028052e-05 -6.9786590584229916e-05 0 -6.2245305429581725e-06 -1.3302223398746122e-06 0 -9.4416999042378784e-06 -2.0809595609428509e-06 0 -7.182082108119004e-06 -1.0187592470975132e-06 0 -8.38674807646696e-06 6.1605034043415402e-07 0 -9.3069774263285447e-06 3.494476387147943e-08 0 -1.2777033773910311e-05 1.2428463201387538e-06 0 -1.7255431950958403e-05 3.0222876913698952e-06 0 -1.2777033773910311e-05 1.2428463201387538e-06 0 -1.640684335744327e-05 2.0073244606747821e-06 0 -1.2388631284092904e-05 -3.4970778887663088e-06 0 -1.2216111776024468e-05 -2.7851570989193391e-06 0 -9.4416999042378784e-06 -2.0809595609428505e-06 0 -1.162224597260662e-05 -3.1152858329131421e-06 0 -1.1700921685186539e-05 -2.3462730836546554e-06 0 -9.9628844192278327e-06 -1.2042771777522264e-06 0 -0.00010224659108612275 0.00017234375088424336 0 -9.1460495352097416e-05 0.00019027367180750554 0 -0.00010977960444000013 0.00019850639939494335 0 -2.570444890350839e-05 -7.862194933556573e-05 0 -3.1652329229627292e-05 -8.7881389331582796e-05 0 -2.5013822627683487e-05 -9.056265120239697e-05 0 -2.570444890350839e-05 -7.862194933556573e-05 0 -2.2645163304721882e-05 -6.6247689238432445e-05 0 -2.987231741162213e-05 -7.1042279524613473e-05 0 -4.097932113996802e-05 -5.4246576221700111e-05 0 -4.8227197684262153e-05 -5.4311078331808693e-05 0 -4.829355346475005e-05 -6.2365586669180619e-05 0 -3.380783029411626e-05 -3.2480490961598532e-05 0 -3.1453477383676506e-05 -3.2290130928335533e-05 0 -3.1695456620113202e-05 -2.9615996431021441e-05 0 -9.7715673173784642e-06 3.8066510792215817e-06 0 -1.0412893549595357e-05 6.4519099457194596e-06 0 -1.3601077936498008e-05 5.3274765261304388e-06 0 -1.4282211679122225e-05 -6.5752524162490257e-06 0 -1.2369379760379923e-05 -4.1593870483157959e-06 0 -1.3933608879336212e-05 -5.5033849304784253e-06 0 -9.4400357971513466e-06 -1.442889228703574e-06 0 -1.2649462683262031e-05 -2.5874272296957274e-06 0 -1.0505386689265323e-05 -1.5646750064459376e-06 0 -7.5905712215816324e-05 9.0610119624372096e-05 0 -6.2690411710763353e-05 9.2147640908662131e-05 0 -7.2665371427065763e-05 0.00011162138597317599 0 -4.987547862609021e-05 -4.5043833829275262e-05 0 -4.8227197684262153e-05 -5.4311078331808693e-05 0 -4.4168727219822536e-05 -4.5935405271261001e-05 0 -2.398928392250192e-05 0.00021340631074453635 0 -4.2892995016818595e-05 0.00021364909546202433 0 -3.3369367211312808e-05 0.00019646246935984171 0 -6.2254217639862679e-05 -0.00010214329636141607 0 -5.3885763346479312e-05 -0.000101531683060749 0 -5.6545112674771519e-05 -9.3227310771943614e-05 0 -2.085882761990369e-05 0.00012530263365172599 0 -3.2252478436741561e-05 0.00014428531776836145 0 -4.3577717017403072e-05 0.00012734636381909781 0 -1.5265434527049461e-05 -4.1464384019711433e-06 0 -1.6650713909290731e-05 -4.5452672608681018e-06 0 -1.9178665739820593e-05 -6.2802702314678806e-06 0 -1.1314865575123531e-05 -3.0093180121161446e-06 0 -1.0401223672189273e-05 -2.2906819732391031e-06 0 -8.9944130686570047e-06 -1.2275264521832691e-06 0 -4.4263295349234801e-05 -6.9814148664015837e-05 0 -4.829355346475005e-05 -6.2365586669180619e-05 0 -5.2382522453139441e-05 -7.0449448254512355e-05 0 -3.9710628746553124e-05 -3.7907876029597829e-05 0 -4.2077796957869188e-05 -3.9401804835043525e-05 0 -4.2074974349032294e-05 -4.037622605934413e-05 0 -2.5777572677331633e-05 -4.0215132600058138e-05 0 -2.5898516606181382e-05 -4.1252602493391261e-05 0 -2.4277841589703432e-05 -3.7731981375662553e-05 0 -6.8708803237931206e-06 1.9458565625053653e-08 0 -7.9457419685880244e-06 -5.895113147898292e-07 0 -8.9944130686570047e-06 -1.2275264521832691e-06 0 -0.0001089008986376289 0.00031914100051712605 0 -0.00011712393279310041 0.00030520880285821801 0 -9.6603511892492339e-05 0.00030644964418152586 0 -0.00010580235586131545 0.00029139846247504687 0 -9.6603511892492339e-05 0.00030644964418152586 0 -0.00011712393279310041 0.00030520880285821801 0 -3.3000902574280996e-05 -0.00013606450033818183 0 -3.6482717698707302e-05 -0.0001428554568893905 0 -2.9529066184014616e-05 -0.00014104645913859328 0 -3.2622324307204362e-05 -0.00014680427124249531 0 -2.9529066184014616e-05 -0.00014104645913859328 0 -3.6482717698707302e-05 -0.0001428554568893905 0 -1.8494493394976723e-05 0.00031462775431778954 0 -2.8571198423232687e-05 0.00030476855667209944 0 -1.070932221452761e-05 0.00030081515647128543 0 -6.9493348595642173e-05 -0.00014879684217872859 0 -6.4174855993365761e-05 -0.00014328385037480892 0 -7.3066968755806702e-05 -0.00014275238852964667 0 -1.9843257533947414e-05 0.0002892903442675029 0 -1.070932221452761e-05 0.00030081515647128543 0 -2.8571198423232687e-05 0.00030476855667209944 0 -6.8105350705121816e-05 -0.00013669629346639862 0 -7.3066968755806702e-05 -0.00014275238852964667 0 -6.4174855993365761e-05 -0.00014328385037480892 0 -2.9261305807724687e-05 -2.968577803519554e-05 0 -3.1453477383676506e-05 -3.2290130928335533e-05 0 -2.9321871274237635e-05 -3.2669850089794736e-05 0 -3.4329203425736823e-05 -2.9378215468915827e-05 0 -3.2757415086862836e-05 -2.5608542050311899e-05 0 -3.5150876949001467e-05 -2.7984356929593793e-05 0 -3.4112443633276939e-05 -2.5467602145973622e-05 0 -3.5150876949001467e-05 -2.7984356929593793e-05 0 -3.2757415086862836e-05 -2.5608542050311899e-05 0 -3.1324337436459153e-05 -3.4786395389823254e-05 0 -3.3226857022174802e-05 -3.4485467615371263e-05 0 -3.3164891360466336e-05 -3.6839444029599829e-05 0 -3.5357160641426438e-05 -3.5178493618144841e-05 0 -3.3164891360466336e-05 -3.6839444029599829e-05 0 -3.3226857022174802e-05 -3.4485467615371263e-05 0 -6.5911084735908851e-06 1.4534304531679413e-05 0 -9.0360082380087278e-06 1.0571226793251064e-05 0 -1.0636107437633124e-05 1.1379903087242455e-05 0 -1.5268120421333644e-05 9.5671817321100396e-06 0 -2.1721923312045605e-05 1.324728571913277e-05 0 -1.9321064032876237e-05 8.0859064471532394e-06 0 -2.6484381775256058e-05 1.1616653235751604e-05 0 -1.9321064032876237e-05 8.0859064471532394e-06 0 -2.1721923312045605e-05 1.324728571913277e-05 0 -1.5265434527049461e-05 -4.1464384019711433e-06 0 -1.778580977628491e-05 -6.3950323680859877e-06 0 -1.4220744144313841e-05 -4.0967470190942321e-06 0 -7.5905712215816324e-05 9.0610119624372096e-05 0 -6.2041586237233072e-05 7.527120181389851e-05 0 -6.2690411710763353e-05 9.2147640908662131e-05 0 -4.8486825002326731e-05 7.7965683333286944e-05 0 -6.2690411710763353e-05 9.2147640908662131e-05 0 -6.2041586237233072e-05 7.527120181389851e-05 0 -8.9409450567185044e-06 8.3789420126360666e-06 0 -9.0360082380087278e-06 1.0571226793251064e-05 0 -6.7839921025265471e-06 1.0705626896881338e-05 0 -2.3542397004497862e-05 -2.9079827386581249e-05 0 -2.4914211790477085e-05 -3.3019856152668356e-05 0 -2.2178926132119382e-05 -3.0410064719818424e-05 0 -2.3391554715447726e-05 -3.3581931829844998e-05 0 -2.2178926132119382e-05 -3.0410064719818424e-05 0 -2.4914211790477085e-05 -3.3019856152668356e-05 0 -5.7065123012968325e-06 9.2904928194886115e-06 0 -6.7839921025265471e-06 1.0705626896881338e-05 0 -5.7713225422888551e-06 1.2960792329033592e-05 0 -3.7632715382180199e-05 -3.9653988549057623e-05 0 -4.3461507713734318e-05 -3.862910046318308e-05 0 -4.4168727219822536e-05 -4.5935405271261001e-05 0 -4.987547862609021e-05 -4.5043833829275262e-05 0 -4.4168727219822536e-05 -4.5935405271261001e-05 0 -4.3461507713734318e-05 -3.862910046318308e-05 0 -6.2662975967975262e-06 5.6554909668215364e-06 0 -8.171959143588031e-06 6.0234775953034463e-06 0 -6.4467684164172819e-06 7.6665726150027612e-06 0 -5.7065123012968325e-06 9.2904928194886115e-06 0 -6.4467684164172819e-06 7.6665726150027612e-06 0 -6.7839921025265471e-06 1.0705626896881338e-05 0 -3.4112443633276939e-05 -2.5467602145973622e-05 0 -3.437067575305733e-05 -2.4165237499591875e-05 0 -3.6286822515568091e-05 -2.7874517606795672e-05 0 -1.1314865575123531e-05 -3.0093180121161446e-06 0 -1.2369379760379923e-05 -4.1593870483157959e-06 0 -1.0401223672189273e-05 -2.2906819732391031e-06 0 -1.162224597260662e-05 -3.1152858329131421e-06 0 -1.0401223672189273e-05 -2.2906819732391031e-06 0 -1.2369379760379923e-05 -4.1593870483157959e-06 0 -1.0228595676690695e-05 -2.1704351088644263e-07 0 -9.9628844192278327e-06 -1.2042771777522264e-06 0 -1.1700921685186539e-05 -2.3462730836546554e-06 0 1.3056372877056007e-05 0.00020637536654803958 0 -5.8032597031184567e-06 0.00022054917059179888 0 -3.1754949905026549e-06 0.00020188533484443162 0 -7.9302333482129586e-05 -0.00010228668190352177 0 -7.1214507292472636e-05 -0.00010671165250754068 0 -7.1149538313310492e-05 -9.7863171427536711e-05 0 -2.0505447642984611e-05 -6.3603713495405513e-06 0 -1.9178665739820593e-05 -6.2802702314678806e-06 0 -1.6650713909290731e-05 -4.5452672608681026e-06 0 -1.1899770555560708e-09 1.9765572659441413e-10 0 -8.9168234083696963e-07 4.0260615094698584e-07 0 -7.6971760859730756e-07 3.3247173439639194e-07 0 1.5291446807511467e-05 0.00012429324141682548 0 -1.0245900293093502e-06 0.00013384565948174472 0 -2.4319054754829287e-06 0.00011607018168247995 0 -3.1324337436459153e-05 -3.4786395389823254e-05 0 -2.9321871274237635e-05 -3.2669850089794736e-05 0 -3.1453477383676506e-05 -3.2290130928335533e-05 0 -1.6969605721514297e-05 4.6074014158704355e-06 0 -1.9321064032876237e-05 8.0859064471532394e-06 0 -2.3457891134005193e-05 7.5413283668174976e-06 0 -2.6484381775256058e-05 1.1616653235751604e-05 0 -2.3457891134005193e-05 7.5413283668174976e-06 0 -1.9321064032876237e-05 8.0859064471532394e-06 0 -3.7105788168952458e-05 -2.7027073475521065e-05 0 -3.6286822515568091e-05 -2.7874517606795672e-05 0 -3.437067575305733e-05 -2.4165237499591875e-05 0 
</DataArray>
</PointData>
<CellData Scalars="region_id,cross_section_updated,displacement_divergence," Vectors="" Tensors="stress,">
<DataArray type="Float64" Name="region_id" format="ascii">
2 2 2 2 2 2 2 2 2 2 3 3 3 3 3 3 3 3 3 3 1 1 1 1 1 1 1 1 1 1 1 1 1 1 1 1 1 1 1 1 1 1 1 1 1 1 1 1 1 1 1 1 1 1 1 1 1 1 1 1 1 1 1 1 1 1 1 1 1 1 1 1 1 1 1 1 1 1 1 1 1 1 1 1 1 1 1 1 1 1 1 1 1 1 1 1 1 1 1 1 1 1 1 1 1 1 1 1 1 1 1 1 1 1 1 1 1 1 1 1 1 1 1 1 1 1 1 1 1 1 1 1 1 1 1 1 1 1 1 1 1 1 1 1 1 1 1 1 1 1 1 1 1 1 1 1 1 1 1 1 1 1 1 1 1 1 1 1 1 1 1 1 1 1 1 1 1 1 1 1 1 1 1 1 1 1 1 1 1 1 1 1 1 1 1 1 1 1 1 1 1 1 1 1 1 1 1 1 1 1 1 1 1 1 1 1 1 1 1 1 1 1 1 1 1 1 1 1 1 1 1 1 1 1 1 1 1 1 1 1 1 1 1 1 1 1 1 1 1 1 1 1 1 1 1 1 1 1 1 1 1 1 1 1 1 1 1 1 1 1 1 1 1 1 1 1 1 1 1 1 1 1 1 1 1 1 1 1 1 1 1 1 1 1 1 1 1 1 1 1 1 1 1 1 1 1 1 1 1 1 1 1 1 1 1 1 1 1 1 1 1 1 1 1 1 1 1 1 1 1 1 1 1 1 1 1 1 1 1 1 1 1 1 1 1 1 1 1 1 1 1 1 1 1 1 1 1 1 1 1 1 1 1 1 1 1 1 1 1 1 1 1 1 1 1 1 1 1 1 1 1 1 1 1 1 1 1 1 1 1 1 1 1 1 1 1 1 1 1 1 1 1 1 1 1 1 1 1 1 1 1 1 1 1 1 1 1 1 1 1 1 1 1 1 1 1 1 1 1 1 1 1 1 1 1 1 1 1 1 1 1 1 1 1 1 1 1 1 1 1 1 1 1 1 1 1 1 1 1 1 1 1 1 1 1 1 1 1 1 1 1 1 1 1 1 1 1 1 1 1 1 1 1 1 1 1 1 1 1 1 1 1 1 1 1 1 1 1 1 1 1 1 1 1 1 1 1 1 1 1 1 1 1 1 1 1 1 1 1 1 1 1 1 1 1 1 1 1 1 1 1 1 1 1 1 1 1 1 1 1 1 1 1 1 1 1 1 1 1 1 1 1 1 1 1 1 1 1 1 1 1 1 1 1 1 1 1 1 1 1 1 1 1 1 1 1 1 1 1 1 1 1 1 1 1 1 1 1 1 1 1 1 1 1 1 1 1 1 1 1 1 1 1 1 1 1 1 1 1 1 1 1 1 1 1 1 1 1 1 1 1 1 1 1 1 1 1 1 1 1 1 1 1 1 1 1 1 1 1 1 1 1 1 1 1 1 1 1 1 1 1 1 1 1 1 1 1 1 1 1 1 1 1 1 1 1 1 1 1 1 1 1 1 1 1 1 1 1 1 1 1 1 1 1 1 1 1 1 1 1 1 1 1 1 1 1 1 1 1 1 1 1 1 1 1 1 1 1 1 1 1 1 1 1 1 1 1 1 1 1 1 1 1 1 1 1 1 1 1 1 1 1 1 1 1 1 1 1 1 1 1 1 1 1 1 1 1 1 1 1 1 1 1 1 1 1 1 1 1 1 1 1 1 1 1 1 1 1 1 1 1 1 1 1 1 1 1 1 1 1 1 1 1 1 1 1 1 1 1 1 1 1 1 1 1 1 1 1 1 1 1 1 1 1 1 1 1 1 1 1 1 1 1 1 1 1 1 1 1 1 1 1 1 1 1 1 1 1 1 1 1 1 1 1 1 1 1 1 1 1 1 1 1 1 1 1 1 1 1 1 1 1 1 1 1 1 1 1 1 1 1 1 1 1 1 1 1 1 1 1 1 1 1 1 1 1 1 1 1 1 1 1 1 1 1 1 1 1 1 1 1 1 1 1 1 1 1 1 1 1 1 1 1 1 1 1 1 1 1 1 1 1 1 1 1 1 1 1 1 1 1 1 1 1 1 1 1 1 1 1 1 1 1 1 1 1 1 1 1 1 1 1 1 1 1 1 1 1 1 1 1 1 1 1 1 1 1 1 1 1 1 1 1 1 1 1 1 1 1 1 1 1 1 1 1 1 1 1 1 1 1 1 1 1 1 1 1 1 1 1 1 1 1 1 1 1 1 1 1 1 1 1 1 1 1 1 1 1 1 1 1 1 1 1 1 1 1 1 1 1 1 1 1 1 1 1 1 1 1 1 1 1 1 1 1 1 1 1 1 1 1 1 1 1 1 1 1 1 1 1 1 1 1 1 
</DataArray>
<DataArray type="Float64" Name="stress" NumberOfComponents="9" format="ascii">
0.0036751172634438573 -0.0022042169982098778 0 -0.0022042169982098778 0.01111898884419439 0 0 0 0.0036985265269095604 0.0091288069947731802 -0.0055923697444952881 0 -0.0055923697444952881 0.027497094734195818 0 0 0 0.0091564754322422514 0.012455823622896701 -0.0075946604308136795 0 -0.0075946604308136795 0.037493425443422893 0 0 0 0.012487312266579894 0.015601104072176811 -0.0087996599852179121 0 -0.0087996599852179121 0.046920264486481296 0 0 0 0.015630342139664521 0.018876386951244464 -0.0094210252351812698 0 -0.0094210252351812698 0.056733910404668478 0 0 0 0.018902574338978236 0.022449314255542325 -0.0096003281287896404 0 -0.0096003281287896404 0.067449280372485848 0 0 0 0.022474648657007042 0.026359190944844409 -0.0094357215056254558 0 -0.0094357215056254558 0.079183996880376362 0 0 0 0.026385796956305187 0.030353093667556275 -0.0090703446631790353 0 -0.0090703446631790353 0.091169674927674027 0 0 0 0.030380692148807571 0.034396753818930578 -0.0086329334582280377 0 -0.0086329334582280377 0.10326191118381998 0 0 0 0.034414666250687648 0.037929623918670934 -0.0082377854778638692 0 -0.0082377854778638692 0.11401319579105687 0 0 0 0.037985704927431953 0.0067135739974067288 0.001341841632807757 0 0.001341841632807757 0.019890659496559222 0 0 0 0.0066510583734914874 0.017075623879981669 0.0032327356380790237 0 0.0032327356380790237 0.051287270759825927 0 0 0 0.017090723659951901 0.024182482369304682 0.0044791049288528933 0 0.0044791049288528933 0.072624849569363367 0 0 0 0.024201832984667014 0.030574733523639305 0.005245108058827096 0 0.005245108058827096 0.091825536746440659 0 0 0 0.030600067567519987 0.036838208201845635 0.005726332565131536 0 0.005726332565131536 0.11063623248807722 0 0 0 0.036868610172480713 0.043051632046735649 0.0059971994860589031 0 0.0059971994860589031 0.12929664147499945 0 0 0 0.043087068380433774 0.049288072742382283 0.006068619283124437 0 0.006068619283124437 0.14801524407554198 0 0 0 0.049325829204481073 0.055338017993478955 0.0060222873040708088 0 0.0060222873040708088 0.16625412347191285 0 0 0 0.055398035366347964 0.061365842191498252 0.0058613472342028978 0 0.0058613472342028978 0.18403733075041021 0 0 0 0.061350793235477118 0.066434503187848687 0.005725360367141938 0 0.005725360367141938 0.20044103307957048 0 0 0 0.066718884066854792 -0.045152706669978546 -0.013125074588246643 0 -0.013125074588246643 0.022185465096982077 0 0 0 -0.0057418103932491138 -0.040939152282715059 -0.01348929012262249 0 -0.01348929012262249 0.039015721396660791 0 0 0 -0.00048085772151356537 -0.06112574843971795 -0.0092751892475596703 0 -0.0092751892475596703 0.033783285841794075 0 0 0 -0.006835615649481 -0.062384397493923882 1.2012784690873524e-06 0 1.2012784690873524e-06 0.03523354195895391 0 0 0 -0.0067877138837425244 -0.13557951129696702 -0.0047397424970560161 0 -0.0047397424970560161 0.0018326659418036878 0 0 0 -0.03343671133879083 -0.097097888494696957 0.00030185533862219817 0 0.00030185533862219817 -8.1324154819753178e-06 0 0 0 -0.024276505227544744 -0.1427083149470936 -0.0022392584964383913 0 -0.0022392584964383913 -0.001241387593525399 0 0 0 -0.035987425635154759 -0.1004182958775824 -0.00068722031888113796 0 -0.00068722031888113796 -0.00077147993560359313 0 0 0 -0.0252974439532965 -0.11767698390015979 0.0033258561519877022 0 0.0033258561519877022 -0.0004236463649179012 0 0 0 -0.029525157566269434 -0.20204304112893851 -0.0096128771603376656 0 -0.0096128771603376656 -0.00053715594950159984 0 0 0 -0.05064504926961004 -0.018784991114466784 0.0032701734055545382 0 0.0032701734055545382 -0.014565616970467541 0 0 0 -0.0083376520212335783 -0.022765323618327005 0.004093129590711099 0 0.004093129590711099 -0.010924699408352882 0 0 0 -0.0084225057566699665 -0.048087265872952097 0.0028736351398270378 0 0.0028736351398270378 -0.0077002775457321107 0 0 0 -0.013946885854671041 -0.047680535272858662 -0.0067616108543720422 0 -0.0067616108543720422 -0.015897346428505654 0 0 0 -0.015894470425341079 -0.048758001377746614 0.0042067297950474257 0 0.0042067297950474257 -0.016252774549808016 0 0 0 -0.016252693981888659 -0.059096647386742772 -0.016014737065545057 0 -0.016014737065545057 0.022422666208272546 0 0 0 -0.0091684952946175999 0.13240305962696503 0.10335699639358574 0 0.10335699639358574 0.2116628009899445 0 0 0 0.08601646515422734 -0.0015000926975828888 -0.011369526209303649 0 -0.011369526209303649 -0.0034039891254811216 0 0 0 -0.0012260204557660304 -0.00052439298856699068 0.0059615699563639879 0 0.0059615699563639879 0.0043918800285025483 0 0 0 0.00096687175998422248 -0.00029480049077790227 0.014046997662100595 0 0.014046997662100595 0.0050806575216908456 0 0 0 0.0011964642577280138 -0.00012139401910760128 -0.0053867470350169302 0 -0.0053867470350169302 0.00073210690966307723 0 0 0 0.00015267822263886899 -0.0113214549920857 0.02185643836836304 0 0.02185643836836304 -0.00077231619884354785 0 0 0 -0.0030234427977327005 -0.0099938195325596224 -0.023528044410196847 0 -0.023528044410196847 -0.0027852744838465782 0 0 0 -0.0031947735041015779 -0.043692622490694728 0.0053440318717824743 0 0.0053440318717824743 -0.0084503225617359023 0 0 0 -0.013035736263107662 0.14439507370311086 -0.0056860174637201888 0 -0.0056860174637201888 0.13038898839366092 0 0 0 0.068696015524192938 -0.22190942861197469 0.014065942329690218 0 0.014065942329690218 0.0068270001615955422 0 0 0 -0.053770607112594793 -0.12196205955901748 -0.0054789239216205205 0 -0.0054789239216205205 0.0026818606892911045 0 0 0 -0.029820049717431574 -0.094844452255928274 -0.020078346928850545 0 -0.020078346928850545 0.016278270706024389 0 0 0 -0.019641545387475964 -0.10661023434390388 0.023740276865626929 0 0.023740276865626929 0.061716443087977302 0 0 0 -0.011223447813981602 -0.1175162152062883 -0.019476616962238624 0 -0.019476616962238624 0.010189895503332075 0 0 0 -0.026831579925739042 -0.050975659757811626 -0.020044379123157423 0 -0.020044379123157423 0.046721114858757767 0 0 0 -0.0010636362247634645 -0.027584861319582571 -0.032113545632002416 0 -0.032113545632002416 0.0025473711273851229 0 0 0 -0.0062593725480492857 -0.031261446942770221 0.041826715772347089 0 0.041826715772347089 -0.00058308795535144675 0 0 0 -0.0079611337245305558 -0.029101120413243753 -0.032950973722623456 0 -0.032950973722623456 0.0064945423706346261 0 0 0 -0.0056516445106521429 -0.039494773274401762 0.044392504439332292 0 0.044392504439332292 -0.0032223395086008466 0 0 0 -0.010679278195750541 -0.088872431558636528 -0.026886623630514112 0 -0.026886623630514112 0.0040923644626596756 0 0 0 -0.02119501677399422 -0.029821683711409381 -0.04127112879352126 0 -0.04127112879352126 0.062650737670602558 0 0 0 0.0082072634897983054 -0.12275694943233209 0.012959837261319163 0 0.012959837261319163 0.015940376451648808 0 0 0 -0.026704143245170869 0.25121813640627066 0.11935059042661154 0 0.11935059042661154 0.070438906118568845 0 0 0 0.080414260631209933 -0.0022808766994188434 0.0079159382514495946 0 0.0079159382514495946 0.011310860535301503 0 0 0 0.0022574959589706789 -0.0048415409877373694 -0.0086821508011370035 0 -0.0086821508011370035 0.041851615183648327 0 0 0 0.0092525185489777395 -0.044732913761095387 -0.020466754839842952 0 -0.020466754839842952 0.077237177855301098 0 0 0 0.0081260660235514346 -0.0033651648097072773 -0.021565183751646289 0 -0.021565183751646289 0.062189683564938925 0 0 0 0.014706129688808023 -0.0073336449705445617 0.0038284095175913357 0 0.0038284095175913357 -0.0028101859002767071 0 0 0 -0.0025359577177050951 -0.034545836920340224 -0.0055371052589810368 0 -0.0055371052589810368 -0.017525278158041974 0 0 0 -0.013017778769595548 -0.038152133264269937 0.0065903701344325882 0 0.0065903701344325882 -0.012748772626430817 0 0 0 -0.01272522647267519 -0.070304413730886861 0.064788567948422693 0 0.064788567948422693 0.06335876659108991 0 0 0 -0.0017364117849492655 -0.064080207796688229 0.05779072666940327 0 0.05779072666940327 0.044025670635063407 0 0 0 -0.0050136342904060355 0.11446558087202255 0.14284728259451851 0 0.14284728259451851 0.24324234503985642 0 0 0 0.089426981477969708 -0.011707669031753999 0.0079032207528610954 0 0.0079032207528610954 0.0006452339453490441 0 0 0 -0.002765608771600904 -0.019055888567748862 -0.022720527372086075 0 -0.022720527372086075 0.051737603462827644 0 0 0 0.0081704287237698361 -0.024301873172852539 -0.011442170066423368 0 -0.011442170066423368 -0.019375067510279287 0 0 0 -0.01091923517078297 -0.047387326286809153 -0.018883713635530576 0 -0.018883713635530576 0.05861722968241765 0 0 0 0.0028074758489021329 -0.037776907270293966 -0.025558667752038321 0 -0.025558667752038321 0.0036192649464116822 0 0 0 -0.0085394105809705328 -0.027712598281769918 -0.0062832889982887274 0 -0.0062832889982887274 0.014821772864024529 0 0 0 -0.003222706354436361 -0.11034629195725365 0.018518237596895748 0 0.018518237596895748 -0.00080044196845596716 0 0 0 -0.027786683481427432 -0.0092148198339835341 -0.0055355610148440926 0 -0.0055355610148440926 0.00030203930050065608 0 0 0 -0.0022281951333706917 -0.012656868885718042 0.024576344871226619 0 0.024576344871226619 0.097948560126848605 0 0 0 0.021322922810282252 -0.019857055288955962 -0.019202012129907464 0 -0.019202012129907464 0.075275233382984863 0 0 0 0.013854544523507338 0.00076203119186457613 0.0010427592936250417 0 0.0010427592936250417 -0.0011194588418526052 0 0 0 -8.9356912496896257e-05 -0.025127685580897674 0.0016781957824510141 0 0.0016781957824510141 -0.004884730120071179 0 0 0 -0.0075031039252422271 0.007923150535825433 -0.060086650704251648 0 -0.060086650704251648 0.098582300916025836 0 0 0 0.026626362862962775 -0.022377927097902595 -7.3526203726498318e-05 0 -7.3526203726498318e-05 -0.0034725286122748722 0 0 0 -0.0064626139275443806 -0.03100223722471912 -0.0095182576644515064 0 -0.0095182576644515064 0.00080120379072246006 0 0 0 -0.0075502583584991512 -0.042298762449405336 -0.034622394461573731 0 -0.034622394461573731 0.0091787935545735166 0 0 0 -0.0082799922237078993 -0.092227632218832692 -0.0063046468931835745 0 -0.0063046468931835745 -0.015172215412957962 0 0 0 -0.026849961907947664 -0.12613829217131398 0.0018113610154092581 0 0.0018113610154092581 -0.019889499758611272 0 0 0 -0.036506947982481303 0.0024528867043759057 0.0042575339529323242 0 0.0042575339529323242 -0.0012118483574653242 0 0 0 0.00031025958672767313 0.0041631159404723617 -0.0055958925180238372 0 -0.0055958925180238372 0.028894597012843359 0 0 0 0.0082644282383289025 -0.091898525044593768 -0.0083942644494028242 0 -0.0083942644494028242 -0.02289510575754853 0 0 0 -0.028698407700535569 -0.072448592215447957 0.0009957468537499512 0 0.0009957468537499512 -0.017060646423872373 0 0 0 -0.022377309659830084 -0.02694729854106041 0.00024890505951613958 0 0.00024890505951613958 -0.016784275787350322 0 0 0 -0.010932893582102683 -0.097660687278105784 0.0030606055934313849 0 0.0030606055934313849 -6.7350869873173368e-05 0 0 0 -0.024432009536994745 -0.13886375841408641 -0.0094013682067962817 0 -0.0094013682067962817 0.0013532718833052168 0 0 0 -0.034377621632695282 -0.032521225677114463 -0.018579220861445325 0 -0.018579220861445325 -0.0085006570881649424 0 0 0 -0.010255470691319879 -0.034915125802947686 -0.023621776114352511 0 -0.023621776114352511 0.0041087818853063895 0 0 0 -0.0077015859794103553 0.0043380548264166374 0.023098094923795554 0 0.023098094923795554 0.11780450489672323 0 0 0 0.030535639930784508 -0.0062721577529424172 -0.0031120884841402408 0 -0.0031120884841402408 -0.0022496101292600601 0 0 0 -0.0021304419705505534 -0.033756991305333384 -0.019692234256163399 0 -0.019692234256163399 -0.0098667821459078597 0 0 0 -0.010905943362810283 -0.026908266981940702 -0.011577493856450544 0 -0.011577493856450544 -0.0060981554731478205 0 0 0 -0.008251605613772077 -0.060697647570333579 0.057333470844190493 0 0.057333470844190493 -0.0016273071784942417 0 0 0 -0.015581238687206733 -0.10962590529592732 -0.00070485502339302341 0 -0.00070485502339302341 -0.036562145098939194 0 0 0 -0.036547012598716629 -0.082210576752455841 -0.0040803787699920224 0 -0.0040803787699920224 -0.027418121774149599 0 0 0 -0.027407174631651359 -0.034348562938377319 -0.005458309345455754 0 -0.005458309345455754 -0.01892956046575741 0 0 0 -0.013319530851033681 -0.011482778497780455 0.029302889638982199 0 0.029302889638982199 0.0022433157205492549 0 0 0 -0.002309865694308133 -0.01057884360756145 -0.017412624350235384 0 -0.017412624350235384 -0.0016786861188136104 0 0 0 -0.0030643824315937929 -0.032083977430648399 -0.032628744245831232 0 -0.032628744245831232 0.0067621296491197913 0 0 0 -0.0063304619453822333 -0.023404076544093502 0.0037339182788897604 0 0.0037339182788897604 -0.012926313798102771 0 0 0 -0.0090825975855490654 -0.068062787673396241 -0.015519561560444269 0 -0.015519561560444269 -0.0080746286640238814 0 0 0 -0.019034354084355009 -0.033534499447501837 -0.01117868173071491 0 -0.01117868173071491 -0.0027686859864797242 0 0 0 -0.0090757963584953694 -0.020432706068138899 0.0056024215384642886 0 0.0056024215384642886 -0.011460628755998573 0 0 0 -0.007973333706034362 -0.024584475657582486 0.0055351868545761955 0 0.0055351868545761955 -0.0099559211296419634 0 0 0 -0.0086350991968061116 -0.026617347758682842 0.0043773610040089162 0 0.0043773610040089162 -0.011684418540475848 0 0 0 -0.0095754415747896747 -0.027951249499320818 -0.0019653112959425179 0 -0.0019653112959425179 0.011359154519207493 0 0 0 -0.0041480237450283175 -0.03143855495301575 -0.031793599290904015 0 -0.031793599290904015 0.024156433965720897 0 0 0 -0.0018205302468237011 -0.023447435975698705 -0.011245541692303213 0 -0.011245541692303213 -0.0049217076879599642 0 0 0 -0.0070922859159146534 -0.046837519048975235 -0.022217660421990207 0 -0.022217660421990207 0.07622503371820516 0 0 0 0.0073468786673074778 -0.017296762727402104 0.020416164286559013 0 0.020416164286559013 0.13679025892861141 0 0 0 0.029873374050302104 0.00015143893412128406 -0.00088386215962565884 0 -0.00088386215962565884 -0.00078343700668215277 0 0 0 -0.00015799951814043922 -0.00708527164392736 -0.005469790562546796 0 -0.005469790562546796 -0.0031979243913657918 0 0 0 -0.00257079900882351 -0.011665886735136244 0.016063877482422662 0 0.016063877482422662 0.13866508134964839 0 0 0 0.031749798653628147 -0.030547568772532049 0.020462898160225083 0 0.020462898160225083 0.10537795150181674 0 0 0 0.018707595682321179 -0.034402786816598835 0.0051461676196601193 0 0.0051461676196601193 -0.0075014401268059683 0 0 0 -0.010476056735851193 -0.038576452827643812 0.0043669043176428777 0 0.0043669043176428777 -0.0088832750191138697 0 0 0 -0.011864931961689418 0.0053684931603796837 0.034183252622104809 0 0.034183252622104809 0.037102424951513946 0 0 0 0.010617729527973463 -0.019480718278619413 0.038223974042507103 0 0.038223974042507103 0.028821824908697558 0 0 0 0.0023352766575197581 -0.040083432765500901 -0.032383803923401136 0 -0.032383803923401136 0.023697139046336357 0 0 0 -0.0040965734297910977 0.00042326616468768563 -0.0088221435193930331 0 -0.0088221435193930331 -0.012625915192791104 0 0 0 -0.0030506622570257713 -0.00047386832006063306 0.0064954080731390654 0 0.0064954080731390654 -0.021452940839173262 0 0 0 -0.0054817022898085432 -0.047254700886633368 0.0095584923613239378 0 0.0095584923613239378 0.0684086800267793 0 0 0 0.0052884947850365058 -0.0087287690144042251 0.0075732849993210361 0 0.0075732849993210361 -0.0046627120262199284 0 0 0 -0.0033478702601557053 -0.017860786478670843 -0.017090189217711216 0 -0.017090189217711216 0.075815699173013673 0 0 0 0.014488728173585486 -0.10729801459913434 0.0028528414127122065 0 0.0028528414127122065 0.00079984268038672812 0 0 0 -0.026624542979686867 -0.1740257005660622 -0.0085780666050043752 0 -0.0085780666050043752 0.0012403500516115218 0 0 0 -0.043196337628612677 -0.017965493736816648 -0.029811950339457022 0 -0.029811950339457022 0.0069969394762327553 0 0 0 -0.0027421385651459768 0.10135247206076731 -0.058373129982842498 0 -0.058373129982842498 0.046971598584630958 0 0 0 0.03708101766134958 -0.026620646185062519 -0.01895434926295779 0 -0.01895434926295779 -0.0048789679285416998 0 0 0 -0.0078749035284010616 -0.02757371494990541 -0.024576662997425225 0 -0.024576662997425225 -0.0010067819772229814 0 0 0 -0.0071451242317821032 0.00015254500978915448 -0.0076535870476481804 0 -0.0076535870476481804 0.0099294437597707823 0 0 0 0.0025204971923901507 -0.002105218348769089 0.0063436338951849969 0 0.0063436338951849969 0.0075506531647588915 0 0 0 0.0013613587039973396 0.00023115732366640884 0.0091417234977271278 0 0.0091417234977271278 0.024406871530007201 0 0 0 0.0061595072134181805 -0.0019353284826299068 -0.0052615021794870653 0 -0.0052615021794870653 0.0020840459940288567 0 0 0 3.717937784962649e-05 -0.064677178367354593 0.032591634334540431 0 0.032591634334540431 0.08465759607182255 0 0 0 0.004995104426117003 -0.037335720583431348 -0.016476495968312715 0 -0.016476495968312715 -0.00055451921602911458 0 0 0 -0.0094725599498651503 -0.031044223933707198 -0.01484106376152769 0 -0.01484106376152769 -0.0056724335181427069 0 0 0 -0.0091791643629625039 -0.029223608187830159 -0.014572391520001643 0 -0.014572391520001643 -0.007781254280245592 0 0 0 -0.0092512156170189794 -0.013937295153385265 -0.03317649241726181 0 -0.03317649241726181 0.014714597030737409 0 0 0 0.00019432546933806361 -0.15956680506128212 0.021451129521866008 0 0.021451129521866008 0.0029275626248010944 0 0 0 -0.039159810609120271 -0.065462790320528236 -0.001222365849563492 0 -0.001222365849563492 0.020581699482242088 0 0 0 -0.011220272709571558 -0.054454449062382365 -0.0089747444712606136 0 -0.0089747444712606136 0.018729874431810289 0 0 0 -0.0089311436576429704 -0.019281349391283592 0.0048790749710205805 0 0.0048790749710205805 -0.020977070728353309 0 0 0 -0.010064605029909163 -0.11721602160811029 0.039192904077674173 0 0.039192904077674173 -0.0019181682611606465 0 0 0 -0.029783547467317262 -0.09455583863003425 0.0058455234710010906 0 0.0058455234710010906 0.0046661453368534445 0 0 0 -0.022472423323295188 -0.094862209972750008 -0.0027240994675769986 0 -0.0027240994675769986 0.0055323321063130981 0 0 0 -0.022332469466609203 -0.15682820670030678 0.00013459215694329452 0 0.00013459215694329452 0.012346482132489456 0 0 0 -0.036120431141954318 -0.15142404010701682 -0.019980175516314924 0 -0.019980175516314924 0.012725429421303058 0 0 0 -0.034674652671428441 -0.032609584324033464 -0.011723531972733153 0 -0.011723531972733153 -0.0050523893520533492 0 0 0 -0.0094154934190217345 -0.094700502972867417 -0.0093736790211982335 0 -0.0093736790211982335 0.00178081691239107 0 0 0 -0.023229921515119101 0.019448860940065038 0.06908042883109955 0 0.06908042883109955 0.024745595515536678 0 0 0 0.011048614113900457 -0.051528173510290015 -0.015228232911676257 0 -0.015228232911676257 0.053530103544526475 0 0 0 0.0005004825085591089 -0.020951675843648092 0.016342043392353196 0 0.016342043392353196 0.020912120659798437 0 0 0 -9.8887959624153338e-06 -0.033993792304002124 0.030769348936586116 0 0.030769348936586116 -0.0059717486979431467 0 0 0 -0.0099913852504864842 -0.026751843227030503 -0.031311798456817086 0 -0.031311798456817086 0.015909462938147212 0 0 0 -0.0027105950722209338 -0.030544622150359364 -0.030435430604875566 0 -0.030435430604875566 0.026906228312480112 0 0 0 -0.0009095984594697852 -0.0066113533949562209 0.006241143955650022 0 0.006241143955650022 -0.01724760019619942 0 0 0 -0.0059647383977888824 -0.030671815082531639 -0.014952109180345147 0 -0.014952109180345147 -0.011970008135790855 0 0 0 -0.01066045580458061 -0.044020381786737006 -0.0095487734395521898 0 -0.0095487734395521898 -0.019982270368901885 0 0 0 -0.016000663038909724 -0.044667223424579003 0.0068614511061657196 0 0.0068614511061657196 -0.013616589312814495 0 0 0 -0.014570953184348378 -0.029214007597532191 -0.03565943579530767 0 -0.03565943579530767 0.01685685179546148 0 0 0 -0.0030892889505177018 -0.070247727305444305 -0.023916960750070517 0 -0.023916960750070517 -0.0052828612615767878 0 0 0 -0.018882647141755263 -0.090244425106067339 -0.0072569139837020784 0 -0.0072569139837020784 0.025750978484136544 0 0 0 -0.016123361655482782 -0.026421932180449612 -0.0016056349992967392 0 -0.0016056349992967392 -0.018449866193882482 0 0 0 -0.011217949593583024 -0.024541414672435452 0.00080887533029145502 0 0.00080887533029145502 -0.014687317461841196 0 0 0 -0.0098071830335691602 -0.032997176783825154 0.0043659126729921217 0 0.0043659126729921217 -0.010939167783692336 0 0 0 -0.010984086141879373 -0.033301642228784359 0.0053717021689430001 0 0.0053717021689430001 -0.011476506168943232 0 0 0 -0.011194537099431901 -0.077602453861385423 -0.018330145681681592 0 -0.018330145681681592 0.026179924950528427 0 0 0 -0.012855632227714214 -0.030571240764413043 0.013442550956726623 0 0.013442550956726623 0.018948529640561956 0 0 0 -0.0029056777809627655 -0.021646344461864506 -0.0022131219863940196 0 -0.0022131219863940196 -0.014369313781711102 0 0 0 -0.0090039145608939043 -0.046738348342006436 -0.021271124577458521 0 -0.021271124577458521 -0.0062172737827517893 0 0 0 -0.013238905531189546 -0.033822846949447961 0.016130535535033092 0 0.016130535535033092 0.055978076249822213 0 0 0 0.0055388073250935638 -0.046216367660552621 -0.00036342186660647414 0 -0.00036342186660647414 0.0019867798015421254 0 0 0 -0.011057396964752626 -0.044137954228246935 0.00087070982529390863 0 0.00087070982529390863 0.0068953134728649279 0 0 0 -0.0093106601888455001 -0.10961002690168181 -0.00071810405524794349 0 -0.00071810405524794349 -0.036510991319620337 0 0 0 -0.036530254555325541 -0.082199861733179613 -0.0040704276312930427 0 -0.0040704276312930427 -0.027383343828817405 0 0 0 -0.027395801390499255 0.089414201616132213 0.037550507030151281 0 0.037550507030151281 0.040046285679225135 0 0 0 0.032365121823839313 -0.034962596166795493 0.0037761011912210481 0 0.0037761011912210481 0.00020007043433852359 0 0 0 -0.0086906314331142501 -0.059481173486978262 -0.011020326271112664 0 -0.011020326271112664 0.063220072937700544 0 0 0 0.00093472486268056376 -0.014532497895081903 0.0011759487321778284 0 0.0011759487321778284 -0.031306060192094143 0 0 0 -0.011459639521794046 -0.10185758857581202 0.0042498550664924056 0 0.0042498550664924056 0.001203095089869613 0 0 0 -0.025163623371485661 -0.16089254206537326 -0.010139226183165012 0 -0.010139226183165012 0.0014540113162173213 0 0 0 -0.039859632687288996 -0.031462118381395281 -0.01237381904035989 0 -0.01237381904035989 -0.016599384471482848 0 0 0 -0.012015375713219527 -0.092024596978778628 0.0079903504742854514 0 0.0079903504742854514 0.00050624722289877944 0 0 0 -0.02287958743896993 -0.11587651023774995 -0.029036654410316901 0 -0.029036654410316901 -0.00049048642516488772 0 0 0 -0.029091749165728653 -0.093763287265873518 0.0046799624779811297 0 0.0046799624779811297 -0.00011209604225470571 0 0 0 -0.023468845827032049 -0.0584541937325656 0.003539277124104654 0 0.003539277124104654 -0.0041175276321307039 0 0 0 -0.015642930341174074 -0.05226533336405035 -0.012046766954334084 0 -0.012046766954334084 -0.011229538732737597 0 0 0 -0.015873718024196994 -0.083371853693791034 -0.022278710274175217 0 -0.022278710274175217 0.010466612791105445 0 0 0 -0.01822631022567138 -0.037683501258918395 -0.012004894563766383 0 -0.012004894563766383 -0.0029566435214305464 0 0 0 -0.010160036195087263 -0.021298147047979388 0.038820808413417729 0 0.038820808413417729 0.032178632262288787 0 0 0 0.0027201213035774607 -0.026907213376735295 -0.020408856297390865 0 -0.020408856297390865 -0.00631594925621215 0 0 0 -0.008305790658236778 -0.029217935179550909 -0.0014968646783277714 0 -0.0014968646783277714 -0.015130602902469415 0 0 0 -0.011087134520505082 -0.037864462930501074 0.0039096319052713113 0 0.0039096319052713113 -0.012142882539456622 0 0 0 -0.01250183636748942 -0.056000148884496302 -0.012057248358969265 0 -0.012057248358969265 -0.021682500693125443 0 0 0 -0.019420662394405441 -0.052067105632032297 0.0065120886161377529 0 0.0065120886161377529 -0.014998143701097885 0 0 0 -0.016766312333282542 -0.054297572821098608 -0.011581527796374912 0 -0.011581527796374912 0.011707061848078515 0 0 0 -0.01064762774325502 -0.054430244060800118 -0.020497189422035156 0 -0.020497189422035156 0.015110626394224946 0 0 0 -0.0098299044166437893 -0.055860762906650874 0.065110577314435106 0 0.065110577314435106 0.013177712808827291 0 0 0 -0.010670762524455868 -0.0085453492250849861 0.085609123526550868 0 0.085609123526550868 0.046087657572081886 0 0 0 0.0093855770867491417 0.043086730078367122 0.0015371073444234162 0 0.0015371073444234162 0.054215131380559278 0 0 0 0.02432546536473161 -0.063445516089380816 -0.0073887847813103313 0 -0.0073887847813103313 0.049511824571875238 0 0 0 -0.0034834228793764049 -0.022830966410220265 0.0040154470990310795 0 0.0040154470990310795 -0.012480032625329519 0 0 0 -0.008827749758887447 -0.037402099301312219 -0.017543990336986365 0 -0.017543990336986365 -0.0063799626566821699 0 0 0 -0.010945515489498597 -0.055194688943739911 0.049261305537489086 0 0.049261305537489086 0.0004990177639472293 0 0 0 -0.013673917794948087 -0.019479885381973816 -0.0042209654563678256 0 -0.0042209654563678256 0.038251604109480475 0 0 0 0.0046929296818766786 -0.020944433356175518 -0.0097543510260099109 0 -0.0097543510260099109 -0.016559058273702243 0 0 0 -0.0093758729074694958 -0.042430427768529018 0.0034579597921512522 0 0.0034579597921512522 -0.0062843964509767675 0 0 0 -0.012178706054876446 -0.086196751066779875 0.018265864700563461 0 0.018265864700563461 0.048090459162252186 0 0 0 -0.0095265729761319085 -0.10237636283819457 0.0013287525397480346 0 0.0013287525397480346 -0.0019150889524919001 0 0 0 -0.026072862947671627 -0.15318693528636904 -0.0042206601771233223 0 -0.0042206601771233223 -0.0038970973619463778 0 0 0 -0.039271008162078874 -0.029400652804614236 -0.017542517311875644 0 -0.017542517311875644 -0.0027523779275939741 0 0 0 -0.0080382576830520663 -0.062862512894559811 0.0024006160965663352 0 0.0024006160965663352 -0.01149762192733674 0 0 0 -0.018590033705474147 -0.068860337839739591 -0.0081960455674831741 0 -0.0081960455674831741 -0.019785469445728798 0 0 0 -0.022161451821367091 -0.1876804157588258 0.0039307760398948344 0 0.0039307760398948344 0.0039968968539381144 0 0 0 -0.045920879726221747 -0.10745545789782701 -0.0017360639540317524 0 -0.0017360639540317524 0.001108383685056058 0 0 0 -0.026586768553192752 0.0019705621337322982 0.027379606395674272 0 0.027379606395674272 0.11972375404156038 0 0 0 0.030423579043823243 0.067588725648343673 0.0012050185126317725 0 0.0012050185126317725 0.29475987478072407 0 0 0 0.090587150107266923 -0.034394661851345085 -0.038164768474999944 0 -0.038164768474999944 0.021448373700106493 0 0 0 -0.003236572037809568 -0.048091146481447633 -0.033132047200423564 0 -0.033132047200423564 0.014394054257052868 0 0 0 -0.0084242730560987189 -0.030061935763326789 -0.037470303051294472 0 -0.037470303051294472 0.051235864779656394 0 0 0 0.0052934822540823944 -0.0029219933350853045 0.0021173423083294396 0 0.0021173423083294396 -0.028092657922868858 0 0 0 -0.0077536628144885822 -0.026725202383165746 0.00013180906626674761 0 0.00013180906626674761 -0.015985778812467811 0 0 0 -0.010677745298908385 -0.072543873218500157 -0.0067796028592473079 0 -0.0067796028592473079 0.01200704283068732 0 0 0 -0.015134207596953247 0.00094301357826254151 -0.0026087291286903541 0 -0.0026087291286903541 -0.018690521827414486 0 0 0 -0.0044368770622879583 -0.16071638420393458 0.021930051342044732 0 0.021930051342044732 -0.00054075037008614879 0 0 0 -0.040314283643505158 -0.030382173275377733 0.030330593294312536 0 0.030330593294312536 -0.0064474520878459174 0 0 0 -0.0092074063408063012 -0.022143818244766411 -0.030827406679620362 0 -0.030827406679620362 0.012573617783697699 0 0 0 -0.0023925501152669559 -0.035211743606282056 0.0035923766251224659 0 0.0035923766251224659 0.015402672684442309 0 0 0 -0.0049522677304599414 -0.061973738353263419 -0.01697224683421672 0 -0.01697224683421672 0.014275442307594977 0 0 0 -0.011924574011417111 -0.021420817580562766 0.0097093794391794504 0 0.0097093794391794504 -0.0011758069912942148 0 0 0 -0.0056491561429642401 -0.017440122560880233 0.013914615830660037 0 0.013914615830660037 0.0073151234939315413 0 0 0 -0.0025312497667371731 -0.086456991795882412 -0.020935768930163731 0 -0.020935768930163731 -0.0026219583586061801 0 0 0 -0.022269737538622134 -0.043426229057346999 -0.031911671255496044 0 -0.031911671255496044 0.0042014151476532646 0 0 0 -0.0098062034774234474 -0.1279749200216666 -0.016850968159264561 0 -0.016850968159264561 -0.0070898793884760572 0 0 0 -0.033766199852535615 -0.033414694998157968 0.050721030414146551 0 0.050721030414146551 0.0040374814883712418 0 0 0 -0.007344303377446737 -0.036114993072381807 0.051989822406196984 0 0.051989822406196984 0.0029365041950228377 0 0 0 -0.0082946222193397978 -0.038161162742812671 0.053882370877663233 0 0.053882370877663233 -0.00015411969529921521 0 0 0 -0.0095788206095279715 -0.034302029698242253 -0.032209241195310989 0 -0.032209241195310989 0.0039114182056980695 0 0 0 -0.0075976528731360737 -0.040878879579162905 -0.030848175864859106 0 -0.030848175864859106 0.0016528355279733925 0 0 0 -0.0098065110127973764 0.046116104123825205 0.039148732436722455 0 0.039148732436722455 0.065235602114818991 0 0 0 0.027837926559661053 -0.027820456794379039 -0.0018544983450968315 0 -0.0018544983450968315 -0.0092802313708891821 0 0 0 -0.0092751720413170539 -0.034194428310411772 0.0047046489456151223 0 0.0047046489456151223 -0.011399760849993432 0 0 0 -0.011398547290101301 -0.033395888813341885 0.0051354139906268984 0 0.0051354139906268984 0.0023447791502863545 0 0 0 -0.0077627774157638801 -0.0092362768700496589 -0.017280761316756627 0 -0.017280761316756627 0.085943533975157693 0 0 0 0.019176814276277016 -0.10281623279348424 -0.026291122789827787 0 -0.026291122789827787 -0.0034281402146307816 0 0 0 -0.026561093252028767 -0.0262475298094355 0.0028265303108336139 0 0.0028265303108336139 -0.012365589647059637 0 0 0 -0.0096532798641237837 -0.15375293531606285 -0.0064767234337404084 0 -0.0064767234337404084 -0.0040417660454526317 0 0 0 -0.03944867534037886 -0.10093173495079134 0.0021716793343730528 0 0.0021716793343730528 -0.0012926602481528951 0 0 0 -0.025556098799736086 -0.095524081411055894 -0.0098599409430257523 0 -0.0098599409430257523 0.00035902221047279248 0 0 0 -0.023791264800145817 -0.02935541553443673 0.0050655995644489056 0 0.0050655995644489056 -0.0096257690349150302 0 0 0 -0.0097452961423379388 -0.027569339628089752 -0.0051281845261703096 0 -0.0051281845261703096 0.017687151258276801 0 0 0 -0.0024705470924532361 -0.042005874838147703 0.010910801051280011 0 0.010910801051280011 0.038210185417909263 0 0 0 -0.00094892235505961847 -0.007666976022556074 0.056791138254759232 0 0.056791138254759232 0.0096386326226055308 0 0 0 0.00049291415001238847 -0.021399015008867601 0.0039473045857643498 0 0.0039473045857643498 -0.013986947472112096 0 0 0 -0.0088464906202449303 -0.02298088475596316 0.028454029313419116 0 0.028454029313419116 -0.010402722547469878 0 0 0 -0.0083459018258582596 -0.019341529502161281 -0.028819059139850167 0 -0.028819059139850167 0.0015953053291499764 0 0 0 -0.0044365560432528817 -0.029451253485615832 0.0051294847646710922 0 0.0051294847646710922 -0.010010546499410702 0 0 0 -0.0098654499962566311 -0.054404229020733601 0.0026585006598765556 0 0.0026585006598765556 0.049772670653637843 0 0 0 -0.001157889591773924 -0.0095559179479227652 0.023539307392898057 0 0.023539307392898057 0.013085908689165926 0 0 0 0.00088249768531056816 -0.0064809880652270113 0.017500883037989912 0 0.017500883037989912 -0.0088853542204914149 0 0 0 -0.0038415855714297731 -0.0056065789883101846 -0.013696030766835704 0 -0.013696030766835704 -0.0090461096461180723 0 0 0 -0.0036631721586071198 -0.0078158646265706899 -0.019736979045010372 0 -0.019736979045010372 0.0040649150104425935 0 0 0 -0.0009377374040320241 -0.11567418433701868 0.00015022411069096075 0 0.00015022411069096075 0.027344247497000485 0 0 0 -0.022082484210004527 -0.073234156826424451 -0.019849203516670577 0 -0.019849203516670577 0.008393793246923742 0 0 0 -0.016210090894875212 -0.083557251208285721 -0.020021884205011248 0 -0.020021884205011248 0.0084152483407556877 0 0 0 -0.018785500716882508 -0.13349324465870871 0.045649837624364475 0 0.045649837624364475 0.01955881569567941 0 0 0 -0.02848360724075738 -0.11036147189771628 0.045375659917088584 0 0.045375659917088584 0.019783338253779537 0 0 0 -0.022644533410984269 -0.040071971944587649 0.0033138614564505726 0 0.0033138614564505726 -0.011306910095348788 0 0 0 -0.012844720509984106 0.078723884768453933 0.033058424710455697 0 0.033058424710455697 0.033310634560261843 0 0 0 0.028008629832178888 -0.090377691903947691 -0.0087540000698085735 0 -0.0087540000698085735 -0.021170643958927447 0 0 0 -0.027887083965718783 -0.073065058880288886 0.0012988253447902684 0 0.0012988253447902684 -0.013717853491178784 0 0 0 -0.021695728092866916 -0.057388285563661053 -0.013447387171777882 0 -0.013447387171777882 0.033333344886809106 0 0 0 -0.0060137351692129762 -0.055471965454784049 0.0049236156072740098 0 0.0049236156072740098 -0.008717217318589765 0 0 0 -0.016047295693343455 -0.055287842519196613 -0.012648383090774745 0 -0.012648383090774745 -0.020513112963744203 0 0 0 -0.018950238870735207 -0.12975099720928815 -0.021443543959478006 0 -0.021443543959478006 0.0022357421869918237 0 0 0 -0.031878813755574074 -0.13099002836565882 -0.022029987765246076 0 -0.022029987765246076 -0.0010256211687977579 0 0 0 -0.033003912383614144 -0.014889962392246048 0.035812433664940413 0 0.035812433664940413 0.032869296078922972 0 0 0 0.0044948334216687869 -0.012602612544120984 -0.015604171763066055 0 -0.015604171763066055 0.00019488487439733859 0 0 0 -0.0031019319174310223 -0.0036780314863750154 -0.0031585498379698151 0 -0.0031585498379698151 0.0053183681206842781 0 0 0 0.0004100841585773572 -0.0013930486312460633 0.0035899632872393727 0 0.0035899632872393727 -0.012741310615389301 0 0 0 -0.0035335898116588549 -0.05523546212717418 0.0019159405823319549 0 0.0019159405823319549 0.0017325861225306327 0 0 0 -0.013375719001160882 -0.0035526450431637158 -0.0037807606303604246 0 -0.0037807606303604246 0.067505001388482588 0 0 0 0.015988089086329704 -0.0022704825430063802 -0.0028539650761338631 0 -0.0028539650761338631 0.11957583984453424 0 0 0 0.029326339325381923 -0.025190498756119881 -0.013700858831606877 0 -0.013700858831606877 0.0037974564503622243 0 0 0 -0.0053482605764393742 -0.086279628594897434 -0.0090037325472563171 0 -0.0090037325472563171 0.01049668841213669 0 0 0 -0.018945735045690124 -0.00042634203417862837 0.00077458196444518679 0 0.00077458196444518679 -0.025661135396096824 0 0 0 -0.0065218693575688769 -0.12909499518899023 -0.029715027713666881 0 -0.029715027713666881 0.0080692946333732474 0 0 0 -0.030256425138904225 -0.036686089327352081 0.0042236327157286271 0 0.0042236327157286271 0.011184418883341693 0 0 0 -0.0063754176110025901 -0.054874059766785721 -0.028725271762407273 0 -0.028725271762407273 0.024600024161360201 0 0 0 -0.0075685089013563522 -0.052038067696085655 -0.025741872552354272 0 -0.025741872552354272 0.021882735965750633 0 0 0 -0.0075388329325837833 -0.057489564227974514 0.005722765323958795 0 0.005722765323958795 -0.0004956312245655986 0 0 0 -0.014496298863135033 -0.07214662721948098 -0.015940907835513635 0 -0.015940907835513635 0.015094481804600934 0 0 0 -0.014263036353720032 -0.063559406467951413 0.0030784564756239086 0 0.0030784564756239086 -0.0009119892049436612 0 0 0 -0.016117848918223768 -0.050414348070839318 -0.01400088364288108 0 -0.01400088364288108 -0.016013999163382232 0 0 0 -0.016607086808555393 -0.089914698086830336 -0.0089535189439487461 0 -0.0089535189439487461 0.0098036582212930323 0 0 0 -0.02002775996638434 -0.15066538396001505 0.016643610822219379 0 0.016643610822219379 0.034415727641659843 0 0 0 -0.029062414079588761 -0.090797722138401232 -0.010066478759101823 0 -0.010066478759101823 -0.020602922267887867 0 0 0 -0.027850161101572277 -0.071761144723499204 0.0023327241138388008 0 0.0023327241138388008 -0.015815594517734566 0 0 0 -0.021894184810308446 -0.066476623933823586 0.0064470696407076776 0 0.0064470696407076776 -0.0031494565559460515 0 0 0 -0.017406520122442416 -0.075738772415901906 -0.020352635841644741 0 -0.020352635841644741 -0.012627952325878183 0 0 0 -0.022091681185445022 -0.035748943991027855 -0.0042300376136831016 0 -0.0042300376136831016 -0.019712270440048984 0 0 0 -0.013865303607769209 -0.010931288695423647 -0.040508677860906617 0 -0.040508677860906617 0.048271573609797669 0 0 0 0.0093350712285935333 -0.01845744209923305 0.006336467150638788 0 0.006336467150638788 -0.011968575071303793 0 0 0 -0.0076065042926342086 -0.014215037916182283 0.021884847028940335 0 0.021884847028940335 -0.0030693465922553287 0 0 0 -0.0043210961271089587 -0.016315279319471965 -0.029368850236351385 0 -0.029368850236351385 0.014808880866072016 0 0 0 -0.00037659961335012593 -0.064668784221802555 0.005415502898026666 0 0.005415502898026666 -0.0059774838927255311 0 0 0 -0.017661567028632023 -0.069080361901934811 -0.01632997821486146 0 -0.01632997821486146 -0.017681759846881751 0 0 0 -0.021690530437204147 -0.022890904502632595 0.0071701756313808148 0 0.0071701756313808148 -0.0061121113707346721 0 0 0 -0.0072507539683418117 -0.031827225741306364 -0.032070809685626721 0 -0.032070809685626721 0.033450683164880757 0 0 0 0.00040586435589357039 -0.081723176109373741 0.015485793028147144 0 0.015485793028147144 -0.0016346370217545925 0 0 0 -0.020839453282782028 -0.010431679332845278 -0.016034175471632661 0 -0.016034175471632661 0.041798984832242092 0 0 0 0.0078418263748491479 -0.045674527703328027 -0.031453276818664944 0 -0.031453276818664944 0.0040807991704550073 0 0 0 -0.010398432133218338 -0.058560647431598147 -0.010488405452001918 0 -0.010488405452001918 0.054523465404830176 0 0 0 -0.001009295506692022 -0.13211002544181163 -0.013312047579442342 0 -0.013312047579442342 -0.0035378150889851245 0 0 0 -0.033911960132699169 -0.09141151439691636 0.0031856178198507723 0 0.0031856178198507723 -0.0019044889652366781 0 0 0 -0.023329000840538249 -0.0072372695712390467 0.0088944390450381734 0 0.0088944390450381734 0.0018571549841713414 0 0 0 -0.0013450286467669298 -0.026976254020582825 0.0049869336406368255 0 0.0049869336406368255 -0.010412442471564729 0 0 0 -0.009347174123036886 -0.050695727905424134 -0.020832959575631166 0 -0.020832959575631166 0.0093958460374431452 0 0 0 -0.010324970466995209 -0.13498647158877825 -0.016291448174754405 0 -0.016291448174754405 -0.0015955965456474729 0 0 0 -0.03414551703360641 -0.094451814195951028 0.0056795488470691262 0 0.0056795488470691262 -0.00072480595928212099 0 0 0 -0.023794155038808294 -0.041252459906496189 0.0069034910499187595 0 0.0069034910499187595 0.055844618186611572 0 0 0 0.003648039570028851 -0.02897317380220632 -0.028790560911944124 0 -0.028790560911944124 0.0013411221006487395 0 0 0 -0.0069080129253895617 -0.030920990845965335 0.044938363743714516 0 0.044938363743714516 0.0033371527640397858 0 0 0 -0.0068959595204813873 -0.083640947637473484 0.0018089943314502366 0 0.0018089943314502366 0.0085450098239217218 0 0 0 -0.018773984453387967 -0.071039476119991452 -0.0044388219936209172 0 -0.0044388219936209172 0.010861045498485045 0 0 0 -0.015044607655376546 -0.032046976888628009 -0.01156422898540535 0 -0.01156422898540535 0.020829931145000036 0 0 0 -0.0028042614359070003 -0.035941015826552417 -0.011922093975164236 0 -0.011922093975164236 0.028926382311427759 0 0 0 -0.0017536583787811505 -0.046677374069504722 -0.0089859542375950174 0 -0.0089859542375950174 -0.021484825916814082 0 0 0 -0.017040549996579703 -0.044575384599121873 -0.004953431116125344 0 -0.004953431116125344 -0.018925297568687834 0 0 0 -0.015875170541952421 -0.050174030243851996 0.0029290541988526569 0 0.0029290541988526569 -0.012099078774636953 0 0 0 -0.015568277254622228 -0.049114587356971981 0.0054743183617648947 0 0.0054743183617648947 -0.011580472866365791 0 0 0 -0.01517376505583444 -0.028975487228224461 -0.00621040364788078 0 -0.00621040364788078 -0.0056604250850537108 0 0 0 -0.0086589780783196124 -0.049721763906679907 -9.2587626462102177e-05 0 -9.2587626462102177e-05 0.059511246670049894 0 0 0 0.0024473706908424773 -0.015175909514306559 0.0096340652421373768 0 0.0096340652421373768 -0.00066033045633773213 0 0 0 -0.0039590599926610671 -0.024972543859647756 0.047289564436927826 0 0.047289564436927826 0.0097174449419821229 0 0 0 -0.0038137747294164637 -0.040715146655546763 -0.029266671840670361 0 -0.029266671840670361 -0.00083912740539515696 0 0 0 -0.010388568515235397 -0.018112458003720855 0.055591957686329296 0 0.055591957686329296 0.0062858447169857889 0 0 0 -0.002956653321683822 -0.010753007263977878 -0.0066404534560944965 0 -0.0066404534560944965 -0.00056669706003630027 0 0 0 -0.0028299260810035354 -0.0045670593558886086 0.0027463457616411224 0 0.0027463457616411224 0.010429977380397887 0 0 0 0.0014657295061273196 -0.057980382439820954 0.059140323088825997 0 0.059140323088825997 0.00043961343941845143 0 0 0 -0.014385192250100709 -0.037154823002082504 0.061456942036032469 0 0.061456942036032469 0.0044241359896615151 0 0 0 -0.008182671753105164 -0.10036290284384847 -0.007996296412712052 0 -0.007996296412712052 -0.012729806479350837 0 0 0 -0.028273177330799811 -0.078354951840672413 0.00059088450379688406 0 0.00059088450379688406 -0.0094867123727758029 0 0 0 -0.021960416053362054 -0.028497877166395236 -0.032532727113690457 0 -0.032532727113690457 0.016465438852792946 0 0 0 -0.0030081095784005307 0.0012355515069971679 -0.0032367139685039489 0 -0.0032367139685039489 0.066378418394365646 0 0 0 0.01690349247534062 -0.0036206227167080995 -0.00074918886813257757 0 -0.00074918886813257757 0.12377149797474535 0 0 0 0.030037718814509284 -0.049888209393524702 0.0023454984859457087 0 0.0023454984859457087 0.036703165482209851 0 0 0 -0.0032962609778287091 -0.010718172494560231 0.014317165963239798 0 0.014317165963239798 0.0049500104770785758 0 0 0 -0.0014420405043704121 -0.010491468513835367 -0.0020939295836916727 0 -0.0020939295836916727 -0.023537614661450101 0 0 0 -0.0085072707938213532 -0.021607553618655129 -0.0035889105739234928 0 -0.0035889105739234928 -0.027579478810216718 0 0 0 -0.012296758107217975 -0.032662317501847365 -0.01243428067089461 0 -0.01243428067089461 -0.0091986925140090658 0 0 0 -0.010465252503964129 -0.02298545884597511 0.017008356752702625 0 0.017008356752702625 -0.0067142608464108022 0 0 0 -0.007424929923096929 -0.017027731879131966 -0.029601689669661813 0 -0.029601689669661813 0.023883197959944313 0 0 0 0.001713866520203014 -0.0037720656169342726 0.0087600036650598012 0 0.0087600036650598012 0.010778749557030842 0 0 0 0.0017516709850241563 -0.0054801498248737701 -0.012674288318960336 0 -0.012674288318960336 0.041477676348627091 0 0 0 0.0089993816309383856 -0.021192702460111734 0.036554016305801351 0 0.036554016305801351 0.009650776780430359 0 0 0 -0.0028854814199201773 -0.018803806007487267 -0.021857618097829157 0 -0.021857618097829157 -0.0084299901637077124 0 0 0 -0.0068084490427989253 -0.024284659173944026 0.0051731057666765164 0 0.0051731057666765164 -0.010350157814076114 0 0 0 -0.0086587042470050359 -0.020656610081782881 0.0078835889931626497 0 0.0078835889931626497 -0.0067246117712231254 0 0 0 -0.0068453054632515008 -0.023491362075822586 0.041040561012032351 0 0.041040561012032351 0.019736321009061086 0 0 0 -0.00093876026669059698 -0.02340696252890051 -0.022612398230348218 0 -0.022612398230348218 0.00071319176945250362 0 0 0 -0.0056734426898620294 -0.077482752434895608 -0.01117703061865959 0 -0.01117703061865959 -0.020247606461159105 0 0 0 -0.024432589724013683 -0.06557958839289571 0.0036212917088190725 0 0.0036212917088190725 -0.013994708698229047 0 0 0 -0.019893574272781187 0.0019591246533018358 0.064413901969165743 0 0.064413901969165743 0.020869677962816802 0 0 0 0.0057072006540297426 -0.11744985308924601 -0.0043838225190283913 0 -0.0043838225190283913 -0.020007845002929049 0 0 0 -0.034364424523043759 -0.087562998116386459 -0.0022117136292300965 0 -0.0022117136292300965 -0.01418219354889573 0 0 0 -0.025436297916320551 -0.033868777839080488 0.014440462772088214 0 0.014440462772088214 -0.0062642575729991989 0 0 0 -0.010033258853020088 -0.013573031929319912 -0.020016470473531389 0 -0.020016470473531389 0.053753545513666179 0 0 0 0.010045128396086511 -0.046829261274206696 -0.0088847881635708559 0 -0.0088847881635708559 0.072974568322803662 0 0 0 0.0065363267621491861 -0.075885083481104676 -0.0036996475119459027 0 -0.0036996475119459027 0.069788792759233831 0 0 0 -0.0015240726804677251 -0.049628319037881896 -0.030949963043197134 0 -0.030949963043197134 0.009232677402648104 0 0 0 -0.010098910408808393 -0.024345236114792237 -0.022465941602818767 0 -0.022465941602818767 0.0017120758869407782 0 0 0 -0.0056582900569628752 -0.055408096444035326 0.067325027584268726 0 0.067325027584268726 0.01692859345265485 0 0 0 -0.0096198757478450636 -0.10711818619308544 0.042220965008549549 0 0.042220965008549549 0.022199428155726508 0 0 0 -0.021229689509339789 -0.072079157506405533 -0.018918472603163247 0 -0.018918472603163247 0.0093869460003320748 0 0 0 -0.015673052876518379 -0.0020073750352097852 -0.045787166177351513 0 -0.045787166177351513 0.034347739024466306 0 0 0 0.0080850909973141094 -0.016924049544492351 0.0022147954782268386 0 0.0022147954782268386 0.033588709023415375 0 0 0 0.0041661648697306902 -0.021765332339952509 -0.008427103656569207 0 -0.008427103656569207 0.063879135087172467 0 0 0 0.010528450686804913 -0.053175605760045305 -0.017269390135137029 0 -0.017269390135137029 0.036730878157159974 0 0 0 -0.0041111819007213432 -0.048994490978023435 -0.012556679855094073 0 -0.012556679855094073 0.035147607498716926 0 0 0 -0.0034617208698266219 -0.030434818038891455 0.02042526528280203 0 0.02042526528280203 0.084238529421316849 0 0 0 0.013450927845606329 -0.014533722044528352 -0.024365831802258403 0 -0.024365831802258403 0.047195305446935676 0 0 0 0.0081653958506018309 -0.015211758099956896 0.03401959098881191 0 0.03401959098881191 0.050604497258881054 0 0 0 0.0088481847897310395 -0.017386511224729784 -0.012964663498510109 0 -0.012964663498510109 -0.0058628440240786617 0 0 0 -0.0058123388122024444 -0.045703867977949446 0.012226702047666845 0 0.012226702047666845 0.050246495792729232 0 0 0 0.0011356569536949482 -0.036851607519337019 -0.0065701324517026816 0 -0.0065701324517026816 0.011765640078126888 0 0 0 -0.0062714918603025624 -0.024091702895620015 -0.0062526942300580313 0 -0.0062526942300580313 -0.021977706042066503 0 0 0 -0.011517352234421629 -0.029315067454678156 0.018591254212736649 0 0.018591254212736649 0.033018449157477765 0 0 0 0.00092584542569988822 -0.028571509539944917 -0.0021348219207917955 0 -0.0021348219207917955 -0.020046605756184097 0 0 0 -0.012154528824032253 -0.094579662185176938 -0.0087225828018162189 0 -0.0087225828018162189 0.0013239897047661042 0 0 0 -0.023313918120102639 -0.049596137878811522 -0.0083087304107795617 0 -0.0083087304107795617 -0.018821804466901917 0 0 0 -0.017104485586428356 -0.016529958017555149 0.010616559736876141 0 0.010616559736876141 -0.0020682421957464135 0 0 0 -0.0046495500533253863 -0.042849587534971159 0.0094797165697474445 0 0.0094797165697474445 0.071618541247955497 0 0 0 0.007192238428246088 -0.15861691891774676 0.018489360521923938 0 0.018489360521923938 0.0017019547347261188 0 0 0 -0.039228741045755133 -0.02750014968563087 0.00459497118090927 0 0.00459497118090927 -0.011851640832185463 0 0 0 -0.009837947629454084 -0.017948979633443718 0.0013304562209008712 0 0.0013304562209008712 -0.0067288364506090381 0 0 0 -0.006169454021013196 -0.041589792065740323 -0.017920081749325356 0 -0.017920081749325356 0.0031608112046182385 0 0 0 -0.0096072452152805368 -0.049704100109792038 -0.023435546612907809 0 -0.023435546612907809 1.3234390547900432e-06 0 0 0 -0.012425694167684298 -0.035399439246238631 -0.0095037223789657867 0 -0.0095037223789657867 -0.017452975981256006 0 0 0 -0.013213103806873655 -0.02351876990765682 0.003702346209988818 0 0.003702346209988818 -0.012794016325001951 0 0 0 -0.0090781965581646952 -0.021768671014973429 -0.0031604195515702801 0 -0.0031604195515702801 -0.0042273147738978861 0 0 0 -0.0064989964472178235 -0.043291526899204541 -0.020099713360225452 0 -0.020099713360225452 0.011877939619182654 0 0 0 -0.0078533968200054927 -0.018992590554316069 0.0013398317655709813 0 0.0013398317655709813 0.017032955309587927 0 0 0 -0.00048990881118210483 -0.091641268134118492 -0.030213761360317608 0 -0.030213761360317608 -0.0049063357421175735 0 0 0 -0.024136900969059016 -0.003383462558904704 0.019789356110667011 0 0.019789356110667011 0.10203070365725631 0 0 0 0.024661810274587859 -0.02424078163519014 -0.0094073540037509229 0 -0.0094073540037509229 -0.0037708610229784112 0 0 0 -0.0070029106645421446 -0.021311328569844985 0.0065702494442148752 0 0.0065702494442148752 -0.0091247036642163309 0 0 0 -0.0076090080585153336 -0.018495966810340787 0.007230898907232856 0 0.007230898907232856 -0.009108529410666609 0 0 0 -0.006901124055251848 -0.025931459020902992 0.018688010308273495 0 0.018688010308273495 0.0026363760795762303 0 0 0 -0.0058237707353314683 -0.023846705095704079 -0.02665883214136136 0 -0.02665883214136136 0.032074306233837557 0 0 0 0.0020569002845329809 -0.021024600456452949 0.012255782199859684 0 0.012255782199859684 0.0082882925787709991 0 0 0 -0.0031840769694204893 -0.028369149299564883 0.010319497821811154 0 0.010319497821811154 0.0072943571832602139 0 0 0 -0.0052686980290761621 -0.021748851332207015 0.0069570996432472641 0 0.0069570996432472641 -0.0075840880432911754 0 0 0 -0.0073332348438745493 -0.079845441450461185 0.0053480307724726728 0 0.0053480307724726728 -0.0015068065506733883 0 0 0 -0.020338062000283656 -0.047099562202452872 -0.003334048848661491 0 -0.003334048848661491 0.015754926236634215 0 0 0 -0.0078361589914546503 -0.031356118543124548 -0.007025735370230983 0 -0.007025735370230983 0.01864602287900452 0 0 0 -0.0031775239160299895 -0.087965140247053736 0.0058088653903990498 0 0.0058088653903990498 -0.0035463229374735269 0 0 0 -0.022877865796131804 0.042920064764602237 0.086324343179984497 0 0.086324343179984497 0.0605207577333986 0 0 0 0.025860205624500018 -0.022548743808139982 0.034006436889689046 0 0.034006436889689046 0.00082545089951757689 0 0 0 -0.0054308232271562673 -0.020071971669228361 -0.029448763114902778 0 -0.029448763114902778 0.00039605820368526778 0 0 0 -0.0049189783663856623 -0.037940361100168594 0.0020621066563800096 0 0.0020621066563800096 0.0081871562702818118 0 0 0 -0.0074383012074716853 -0.025509823164111958 0.0037061599237062856 0 0.0037061599237062856 -0.011253379652699362 0 0 0 -0.0091908007042028287 0.0045446264718433937 -0.001940735896210747 0 -0.001940735896210747 0.02005170514658644 0 0 0 0.0061490829046074724 -0.032109732398374752 -0.011598110285786688 0 -0.011598110285786688 -0.0022629702730394552 0 0 0 -0.0085931756678535587 -0.034632578579342044 -0.015793651385669877 0 -0.015793651385669877 -0.013001039091648292 0 0 0 -0.011908404417747653 -0.027700027177690566 0.0067717076362646383 0 0.0067717076362646383 -0.0011845709218633524 0 0 0 -0.0072211495248884847 -0.077494905146059445 -0.018567251780740202 0 -0.018567251780740202 0.00054089076701013816 0 0 0 -0.019238503594762257 -0.063436556453729143 -0.023736152105658104 0 -0.023736152105658104 0.0052650195170651504 0 0 0 -0.014542884234165998 -0.024722872907797542 0.0016882518343112436 0 0.0016882518343112436 -0.0082456553887647627 0 0 0 -0.0082421320741405749 -0.090706396383739119 0.049561296095076646 0 0.049561296095076646 0.0080980590988111167 0 0 0 -0.020652084321232 -0.12034156909044802 0.039373531791266569 0 0.039373531791266569 -0.0007561832811742164 0 0 0 -0.030274438092905753 -0.010581450978059848 0.0081900359008255652 0 0.0081900359008255652 0.02499137607128854 0 0 0 0.0036024812733072009 -0.012485018629496358 -0.014132883865729279 0 -0.014132883865729279 0.048698170224790283 0 0 0 0.0090532878988234811 -0.0091998407624183653 -0.017304181311725716 0 -0.017304181311725716 0.0082310449137008301 0 0 0 -0.00024219896217936299 -0.026386378824131529 -0.00030816044366688278 0 -0.00030816044366688278 -0.017422108590917307 0 0 0 -0.010952121853762209 0.017703808189950432 0.042190179309239732 0 0.042190179309239732 0.10360640404175037 0 0 0 0.0303275530579252 -0.029910789546304262 -0.0060011026613949851 0 -0.0060011026613949851 -0.014211247505596283 0 0 0 -0.011030509262975143 -0.043184781204113336 -0.011458882629883871 0 -0.011458882629883871 0.03255314732460482 0 0 0 -0.0026579084698771169 0.035143319899141656 0.030339300662734936 0 0.030339300662734936 0.020959007869498336 0 0 0 0.014025581942160081 -0.037961575590528894 0.0014844802574328056 0 0.0014844802574328056 0.0066967462855097304 0 0 0 -0.007816207326254784 -0.02098171856158193 0.038418279433255043 0 0.038418279433255043 0.0038217203996135929 0 0 0 -0.0042899995404916957 -0.019404101993014455 -0.02467560118525669 0 -0.02467560118525669 0.00053552300453563184 0 0 0 -0.0047171447471197059 -0.036827262253621484 0.0028416752944921638 0 0.0028416752944921638 -0.0041427160528013079 0 0 0 -0.0102424945766057 -0.063214938762576528 -0.015556660739766713 0 -0.015556660739766713 0.055716320999574104 0 0 0 -0.0018746544407506061 -0.020579932279609969 0.030813931389745086 0 0.030813931389745086 0.057382459439784927 0 0 0 0.0092006317900436008 -0.018784422130696921 -0.012362737820577729 0 -0.012362737820577729 0.0016703329010629986 0 0 0 -0.0042785223074086054 -0.12689503299982019 0.0022043986149840621 0 0.0022043986149840621 0.0011833205905511512 0 0 0 -0.031427928102317274 -0.2241323320726275 -0.0076851480092449053 0 -0.0076851480092449053 0.0018679536265874264 0 0 0 -0.055566094611509992 -0.028071015063420357 0.020546916381416425 0 0.020546916381416425 0.097244929509948452 0 0 0 0.017293478611632107 -0.067016253624261668 0.0076248414310508932 0 0.0076248414310508932 -0.00027052239890613949 0 0 0 -0.016821694005791955 0.014959991637016804 -0.00086427246821363379 0 -0.00086427246821363379 0.053783549494008792 0 0 0 0.017185885282756413 0.0081584562701431662 0.0024847241350294258 0 0.0024847241350294258 0.074025016569899349 0 0 0 0.020545868210010587 0.0070209717067409305 -0.0047644044135604635 0 -0.0047644044135604635 0.13932491129322311 0 0 0 0.036586470749991107 0.020516345718104789 -0.0020124399126009718 0 -0.0020124399126009718 0.11469383742538253 0 0 0 0.033802545785871774 -0.016560305247837609 0.0089568563887630348 0 0.0089568563887630348 -0.0025039972310783309 0 0 0 -0.0047660756197290544 -0.017555561699433953 -0.015900729531057423 0 -0.015900729531057423 0.01409339028889689 0 0 0 -0.00086554285263429342 -0.016436212116761773 0.0037574658916804393 0 0.0037574658916804393 0.10024923993637785 0 0 0 0.020953256954904048 -0.016036622652067178 -0.010059697944622081 0 -0.010059697944622081 0.049092002579405158 0 0 0 0.0082638449818344673 -0.067381817119921195 0.0050092955216449672 0 0.0050092955216449672 0.04708189659568085 0 0 0 -0.0050749801310600862 -0.0036585607772998685 0.027323153607089035 0 0.027323153607089035 0.03775276210928169 0 0 0 0.0085235503329954554 -0.0086394092880763829 0.0088913788805351501 0 0.0088913788805351501 -0.0033074975882296798 0 0 0 -0.0029867267190759605 -0.0067033671219450808 -0.0073654799454426767 0 -0.0073654799454426767 -0.0033500609385486158 0 0 0 -0.0025133570151235629 -0.006101217440694473 -0.023248456181119925 0 -0.023248456181119925 0.014759317327255328 0 0 0 0.0021645249716402137 -0.030514638470610461 0.0058696795207887151 0 0.0058696795207887151 -0.0019192269654264293 0 0 0 -0.0081084663590092303 -0.016827888920564138 0.026941182271967623 0 0.026941182271967623 0.051199604760948425 0 0 0 0.0085929289600955028 -0.0041155547058439185 -0.0064796351153770804 0 -0.0064796351153770804 -0.0025153899265820123 0 0 0 -0.001657736158106396 -0.050844574001191363 -0.0053742567302742803 0 -0.0053742567302742803 0.070694989844091949 0 0 0 0.0049626039607251413 -0.0050077938752930429 0.0080077500668218615 0 0.0080077500668218615 -0.0034045977461669708 0 0 0 -0.0021030979053646703 -0.015157100972165605 -0.023819743895972967 0 -0.023819743895972967 0.026100351718113313 0 0 0 0.0027358126864867049 -0.0095540212528116286 -0.025569344043619824 0 -0.025569344043619824 0.020086908320540497 0 0 0 0.0026332217669321478 -0.045152287610531541 -0.021504895390112008 0 -0.021504895390112008 0.006576621226136864 0 0 0 -0.0096439165960986589 -0.04453573121870566 -0.020372240511136092 0 -0.020372240511136092 0.0077502015704485894 0 0 0 -0.0091963824120642468 -0.030253754542668633 -0.0093989078447951693 0 -0.0093989078447951693 -0.0094510188166580522 0 0 0 -0.0099261933398316834 -0.024110706883333666 0.073644003148909398 0 0.073644003148909398 0.017389312334751938 0 0 0 -0.0016803486371454457 -0.074383135597071465 -0.0085517128518781682 0 -0.0085517128518781682 -0.00035170637708414887 0 0 0 -0.018683710493538924 0.012398251894470622 -0.017777192856813673 0 -0.017777192856813673 0.036723929249233081 0 0 0 0.012280545285925953 -0.022614012634757957 -0.0088225802369912704 0 -0.0088225802369912704 0.023448717337923419 0 0 0 0.00020867617579135855 -0.012494218673325404 0.020351224956952012 0 0.020351224956952012 0.018590017535715347 0 0 0 0.0015239497155974842 -0.028384682683645412 -0.010191098842455448 0 -0.010191098842455448 -0.014747306621709089 0 0 0 -0.010782997326338639 -0.030501931866889154 -0.011301169441117274 0 -0.011301169441117274 -0.016967318419558008 0 0 0 -0.011867312571611777 -0.24971982994736502 0.0053737084725929843 0 0.0053737084725929843 0.0070527239959703447 0 0 0 -0.060666776487848628 -0.13361544970144867 -0.0024937310896045815 0 -0.0024937310896045815 0.0030928036473879539 0 0 0 -0.03263066151351518 -0.03507999741171107 -0.004548987326005673 0 -0.004548987326005673 -0.011695256321875494 0 0 0 -0.011693813433396646 -0.040971649778708666 0.0047182623456408805 0 0.0047182623456408805 -0.013656870617151453 0 0 0 -0.013657130098965032 -0.0051793152512244756 0.0069003308136766084 0 0.0069003308136766084 0.0062883615713003049 0 0 0 0.0002772615800189504 -0.021831339658537365 0.017751135510872672 0 0.017751135510872672 0.021568886325574861 0 0 0 -6.5613333240639032e-05 -0.015873673602633795 0.012592569183100914 0 0.012592569183100914 0.0044768412988942727 0 0 0 -0.002849208075934891 -0.11893305000649118 -0.014181826531072998 0 -0.014181826531072998 -0.011041683890634202 0 0 0 -0.032493683474281367 -0.087806022313763887 0.003251417091496539 0 0.003251417091496539 -0.0058264094856734783 0 0 0 -0.023408107949859355 0.045139354602470316 0.03531990661155765 0 0.03531990661155765 0.026646415847657146 0 0 0 0.017946442612531754 -0.099309827738522288 -0.013235785247061267 0 -0.013235785247061267 -0.006621522766356914 0 0 0 -0.026482837626219825 -0.078237033620043278 0.003136462701957235 0 0.003136462701957235 -0.0038892056692996849 0 0 0 -0.020531559822335725 -0.034152682138224311 -0.0038073538259318987 0 -0.0038073538259318987 -0.0052811485389161472 0 0 0 -0.009858457669285059 0.035056594462614443 0.099986784229808001 0 0.099986784229808001 0.062342596258712524 0 0 0 0.024349797680331742 -0.0087596791808680907 0.010062990750633438 0 0.010062990750633438 -0.0024471324158205493 0 0 0 -0.0028017028991721496 -0.029716405700562304 -0.0080800665081474654 0 -0.0080800665081474654 0.013834660637769725 0 0 0 -0.003970436265698124 -0.062223235143763808 -0.0079244933999005202 0 -0.0079244933999005202 -0.020737016632425997 0 0 0 -0.020740062944047448 -0.057239621505614215 0.0033003602868716879 0 0.0033003602868716879 -0.019075846422455068 0 0 0 -0.019078866982017318 -0.11421373600435858 0.0037326694505839439 0 0.0037326694505839439 -0.0005773758133935103 0 0 0 -0.028697777954438015 -0.18505092922496647 -0.010059395516558184 0 -0.010059395516558184 -0.0011617271127744577 0 0 0 -0.046553164084435238 -0.068070106515320139 -0.010997661380888646 0 -0.010997661380888646 0.024653605482068908 0 0 0 -0.010854125258312891 0.0094619838199515027 -0.016413810849285282 0 -0.016413810849285282 0.025942679660169832 0 0 0 0.0088511658700303752 -0.058862744377563378 -0.011197565178022922 0 -0.011197565178022922 0.052735085168116626 0 0 0 -0.0015319148023616551 -0.02870819518491691 0.013790922457956122 0 0.013790922457956122 0.030945837877300913 0 0 0 0.00055941067309599884 -0.03955469499932926 0.0083952379486253066 0 0.0083952379486253066 0.035297450715145506 0 0 0 -0.0010643110710459314 0.0018327097736727006 0.020358906321622544 0 0.020358906321622544 0.030787575073149241 0 0 0 0.0081550712117054898 0.013741008869013187 0.016319894233931195 0 0.016319894233931195 0.017252821429095067 0 0 0 0.007748457574527072 -0.019502578588446673 -0.012179718338965473 0 -0.012179718338965473 -0.016644216681615642 0 0 0 -0.0090366988175155649 -0.056780995889734495 -0.016800392909561784 0 -0.016800392909561784 0.026096215319709182 0 0 0 -0.0076711951425062937 -0.064994341740160222 -0.03022326460560168 0 -0.03022326460560168 0.062700143953800025 0 0 0 -0.00057354944659004925 -0.016292813651086244 -0.051447809361636537 0 -0.051447809361636537 0.1010644383582537 0 0 0 0.021192906176791829 -0.10811419875588826 0.0033601265150639686 0 0.0033601265150639686 -0.00067932875501469647 0 0 0 -0.02719838187772574 -0.16743502918396586 -0.0085888341938823894 0 -0.0085888341938823894 -0.0014259497746547389 0 0 0 -0.042215244739655128 -0.0012578400198350627 -0.0018452113050338448 0 -0.0018452113050338448 -0.016964198261966469 0 0 0 -0.0045555095704503971 -0.016708100968230999 -0.02678207404156234 0 -0.02678207404156234 0.077051992947353432 0 0 0 0.015085972994780594 -0.018160528669331412 0.011031339140907967 0 0.011031339140907967 -0.002647224902104315 0 0 0 -0.0052019383928589282 -0.095059314742968415 -0.012914636071761441 0 -0.012914636071761441 -0.014546221198078987 0 0 0 -0.027401383985261849 -0.075185682276449881 0.0032775706056723908 0 0.0032775706056723908 -0.0088542670581263014 0 0 0 -0.02100998733364404 -0.038925531897346564 0.0024039742609822563 0 0.0024039742609822563 -0.0049385484631392345 0 0 0 -0.010966020090121438 -0.058950295657226065 -0.0073831393570311645 0 -0.0073831393570311645 0.057320393668475467 0 0 0 -0.00040747549718765999 -0.021389892940648997 -0.012395873626318166 0 -0.012395873626318166 0.026278830325817903 0 0 0 0.0012222343462921781 -0.040855539688829573 0.0042915224507427217 0 0.0042915224507427217 -0.0028146508514197265 0 0 0 -0.010917547635062327 -0.059678605008569252 0.015367733141606443 0 0.015367733141606443 0.00058299953020091166 0 0 0 -0.014773901369592113 -0.016930416496877043 -0.019633087395323989 0 -0.019633087395323989 0.046407771960309319 0 0 0 0.007369338865858055 -0.010440925469736351 -0.01770133143077135 0 -0.01770133143077135 0.03938365998961102 0 0 0 0.0072356836299686811 -0.042121336968106299 -0.025729973362708023 0 -0.025729973362708023 0.038062915031455369 0 0 0 -0.0010146054841627533 -0.044100864898237002 -0.015159277279988476 0 -0.015159277279988476 0.029867569675905703 0 0 0 -0.0035583238055828248 -0.039118696801699548 -0.0024403796743602303 0 -0.0024403796743602303 0.024495978715551467 0 0 0 -0.0036556795215370169 -0.056877656604080416 -0.0079933921637489955 0 -0.0079933921637489955 0.054295215929351895 0 0 0 -0.00064561016868213555 -1.8044716660892135e-06 0.023098934509941493 0 0.023098934509941493 0.11640264561828317 0 0 0 0.029100210286654216 0.00021905520498199937 0.00034545200008562205 0 0.00034545200008562205 0.00083993103675972236 0 0 0 0.00026474656043518063 -0.0030888754950210151 -0.019037302213111396 0 -0.019037302213111396 0.061553386648526387 0 0 0 0.014616127788376398 0.00048752029552912024 -0.00077358464145316219 0 -0.00077358464145316219 0.0010375137290536962 0 0 0 0.00038125850614545431 -0.03954840205231952 0.0016763895606703508 0 0.0016763895606703508 0.026492805267408173 0 0 0 -0.0032638991962278263 -0.041300189628328599 -0.0012481142203126445 0 -0.0012481142203126445 0.017108836124538347 0 0 0 -0.0060478383759475663 -0.038632739923698839 -0.011655986952333525 0 -0.011655986952333525 0.024273856371439681 0 0 0 -0.0035897208880647999 -0.14748682390587503 -0.014314198653201764 0 -0.014314198653201764 0.0020399782725411542 0 0 0 -0.036361711408333455 -0.16998968278976243 -0.021893940747183413 0 -0.021893940747183413 0.0026887870194124974 0 0 0 -0.041825223942587447 -0.035409661866241435 -0.022635681416684636 0 -0.022635681416684636 -0.00043757478206898903 0 0 0 -0.0089618091620776164 -0.048869080998498536 -0.0019030765955827984 0 -0.0019030765955827984 0.0066616257724719102 0 0 0 -0.010551863806506655 -0.019705072378368202 -0.034960531212671342 0 -0.034960531212671342 0.056151903725078861 0 0 0 0.0091117078366776752 -0.072918847326195427 0.0042193815343362327 0 0.0042193815343362327 -0.007773596580559837 0 0 0 -0.020173110976688814 -0.062601647059574106 0.0036847347649795674 0 0.0036847347649795674 -0.010123440680445607 0 0 0 -0.018181271935004933 -0.068677374728137411 -0.012132490634537595 0 -0.012132490634537595 -0.017257564239153426 0 0 0 -0.021483734741822705 -0.089060529468944702 -0.014560648124868913 0 -0.014560648124868913 -0.016292069563838652 0 0 0 -0.026338149758195841 -0.060734983668354836 -0.023268840066346996 0 -0.023268840066346996 0.00053007071843147457 0 0 0 -0.01505122823748084 -0.047774944400352459 -0.024374216908274987 0 -0.024374216908274987 0.001567387036214285 0 0 0 -0.011551889341034571 -0.037599693180914148 -0.0039208365791997355 0 -0.0039208365791997355 -0.018726124207417809 0 0 0 -0.014081454347082989 -0.036166360723026418 -0.0052238523523766844 0 -0.0052238523523766844 -0.018889366335921726 0 0 0 -0.013763931764737038 -0.041160215211740882 0.0057176711315422724 0 0.0057176711315422724 -0.010754749337774797 0 0 0 -0.012978741137378919 -0.044400027411872732 0.0035321134428886848 0 0.0035321134428886848 -0.014101712287167313 0 0 0 -0.014625434924760015 -0.026362042999120261 0.042293345141166672 0 0.042293345141166672 0.0086854934761815272 0 0 0 -0.004419137380734961 -0.026773956501239926 -0.027132216397576125 0 -0.027132216397576125 -0.0036965027305155829 0 0 0 -0.0076176148079389883 -0.0567294202471662 0.0025025647396455918 0 0.0025025647396455918 -0.0080935450029489646 0 0 0 -0.016205741312528787 -0.048870084938923808 -0.0094211845414180762 0 -0.0094211845414180762 -0.017386496959907551 0 0 0 -0.016564145474707845 -0.038160652521953498 -0.0061561730684816518 0 -0.0061561730684816518 0.011903447618508575 0 0 0 -0.006564301225861241 -0.066414550366740266 0.0035750398602839724 0 0.0035750398602839724 -0.0058470025922788991 0 0 0 -0.018065388239754784 -0.07301324791884832 -0.013809789246155431 0 -0.013809789246155431 -0.011338363464629662 0 0 0 -0.021087902845869491 -0.085542828293158624 -0.014668159230688829 0 -0.014668159230688829 0.097389583947855463 0 0 0 0.0029616889136742514 -0.042460216739907269 -0.0034528728987597741 0 -0.0034528728987597741 0.01342587431486636 0 0 0 -0.0072585856062602275 -0.077994135896724229 -0.0071789482653373381 0 -0.0071789482653373381 -0.02600874248417976 0 0 0 -0.026000719595225995 -0.065495857902683335 0.0015789326578192129 0 0.0015789326578192129 -0.021837540211318212 0 0 0 -0.021833349528500384 0.017876569301067513 0.012646231943393302 0 0.012646231943393302 0.034029062215288397 0 0 0 0.012976407879088964 -0.007009681844028004 -0.0018743450080205559 0 -0.0018743450080205559 -0.029183243542708182 0 0 0 -0.009048231346683977 -0.058129017164742683 0.0012045157783459048 0 0.0012045157783459048 0.0091700508828779781 0 0 0 -0.012239741570466187 0.0033332561745216815 -0.027867381930742396 0 -0.027867381930742396 0.018990624413873558 0 0 0 0.0055809701470988515 -0.040388036909841114 0.0032337455262858219 0 0.0032337455262858219 0.026729160395319501 0 0 0 -0.0034147191286304016 -0.047547280541070491 -0.0094059321016538647 0 -0.0094059321016538647 0.028976287648996631 0 0 0 -0.0046427482230184704 -0.13993035375904495 -0.0038311219063790914 0 -0.0038311219063790914 -0.010869483388811038 0 0 0 -0.037699959286963985 -0.10028042339444568 -0.002426720552291213 0 -0.002426720552291213 -0.0080772714559878833 0 0 0 -0.02708942371260839 -0.01335349468669169 -0.01782585069984377 0 -0.01782585069984377 0.035010313604336679 0 0 0 0.0054142047294112455 -0.034629589046033318 0.0082157646807008416 0 0.0082157646807008416 0.017330207769386333 0 0 0 -0.0043248453191617421 -0.042027136453778091 -0.0045477424583827628 0 -0.0045477424583827628 0.0083453685338522703 0 0 0 -0.0084204419799814613 -0.084872230783257507 0.00042536255863587225 0 0.00042536255863587225 0.0052356197361709267 0 0 0 -0.019909152761771617 -0.08907841525146587 0.017607478961153333 0 0.017607478961153333 0.00075523154418100091 0 0 0 -0.022080795926821217 -0.046909819596644961 -0.0037025331644753023 0 -0.0037025331644753023 0.025562626419268486 0 0 0 -0.0053367982943440945 -0.046719541914367418 -0.018622806027943653 0 -0.018622806027943653 0.013557702350795453 0 0 0 -0.0082904598908929983 -0.045588732702861949 -0.00076913139935332053 0 -0.00076913139935332053 0.0094712776134103782 0 0 0 -0.0090293637723628667 -0.032832146602639042 0.0074847359241983925 0 0.0074847359241983925 0.02206123381998281 0 0 0 -0.0026927281956640528 -0.050909785352554991 -0.02125619237830792 0 -0.02125619237830792 0.014105120659812925 0 0 0 -0.0092011661731855252 0.045604947961363801 0.016669308542459765 0 0.016669308542459765 0.088250281781608875 0 0 0 0.033463807435743176 -0.051879220850445759 0.0037865293733905948 0 0.0037865293733905948 0.0037518072807520564 0 0 0 -0.012031853392423422 -0.050562494742120156 0.012646887000802824 0 0.012646887000802824 -0.0027133692094336581 0 0 0 -0.013318965987888287 -0.015813438633524746 -0.016444434926301543 0 -0.016444434926301543 0.051233199970511123 0 0 0 0.0088549403342464972 -0.003003359702017705 -0.014767638113407422 0 -0.014767638113407422 0.03567611142578242 0 0 0 0.0081681879309410954 -0.1136682338185058 -0.023329112595725315 0 -0.023329112595725315 0.03063498649582954 0 0 0 -0.020758311830668973 -0.0019801166800086506 -0.014449893738576899 0 -0.014449893738576899 -0.013838838989877492 0 0 0 -0.0039547389174715564 -0.10906642112002168 0.0058761415826898977 0 0.0058761415826898977 0.0019670459401776585 0 0 0 -0.026774843794961034 -0.18404050976307523 -0.020169670715953436 0 -0.020169670715953436 0.005481114992155027 0 0 0 -0.044639848692730015 -0.105757981949503 9.7912494431362518e-05 0 9.7912494431362518e-05 0.00030230957279787918 0 0 0 -0.026363918094176229 -0.18164370585493197 -0.0043039137651880444 0 -0.0043039137651880444 0.0022677587439192681 0 0 0 -0.044843986777753198 -0.086975124479909099 -0.0022391584557728953 0 -0.0022391584557728953 -0.01175111387682766 0 0 0 -0.024681559589184193 -0.11714470848382315 -0.0031954477627247082 0 -0.0031954477627247082 -0.014895779995699361 0 0 0 -0.033010122119880622 -0.049812169686562949 -0.013045263009641719 0 -0.013045263009641719 0.038916196236582531 0 0 0 -0.0027239933624951251 -0.045770100143960255 -0.021413992948177418 0 -0.021413992948177418 0.049665401313010657 0 0 0 0.00097382529226260062 -0.015618414488440702 -0.0033960312295207851 0 -0.0033960312295207851 0.056266907478111694 0 0 0 0.010162123247417776 -0.009309782131158878 -0.0011439090489395176 0 -0.0011439090489395176 0.11014527157458898 0 0 0 0.025208872360857532 -0.021627262654034404 0.0054636935916579921 0 0.0054636935916579921 0.034535624270439769 0 0 0 0.0032270904041013376 -0.015599140809048562 0.0016808006766464989 0 0.0016808006766464989 0.095069035777410826 0 0 0 0.019867473742090525 -0.026222096757018531 -0.0090782314303932687 0 -0.0090782314303932687 0.048102988712959038 0 0 0 0.0054702229889851406 -0.04629349939396285 -0.00044226275382702046 0 -0.00044226275382702046 0.010299460815699183 0 0 0 -0.0089985096445659198 -0.030699661546298711 -0.021216337964825659 0 -0.021216337964825659 0.041229039865708528 0 0 0 0.0026323445798524525 -0.047908830606745625 -0.022877427145685279 0 -0.022877427145685279 0.036907323523957425 0 0 0 -0.0027503767706970605 -0.044301816287408591 -0.00080011236196711108 0 -0.00080011236196711108 0.048575327386546567 0 0 0 0.0010683777747845004 -0.12187359861816516 0.016904699986506906 0 0.016904699986506906 -0.0016775008160090366 0 0 0 -0.030887774858543438 -0.057107940065364071 -0.0073644268043873799 0 -0.0073644268043873799 0.050690204547064785 0 0 0 -0.0016044338795748458 0.0034396390474504823 -0.013008138064744004 0 -0.013008138064744004 0.14363112586179227 0 0 0 0.036767691227310689 0.051185358524338753 -0.017378584605989792 0 -0.017378584605989792 0.075996007566320523 0 0 0 0.031795341522664805 0.0093044544575397459 -0.014877010430195181 0 -0.014877010430195181 0.029883386933374334 0 0 0 0.0097969603477285339 -0.20201406814331055 -0.015363539104551266 0 -0.015363539104551266 0.0048509060855760344 0 0 0 -0.049290790514433608 -0.11555801171753449 0.0052724702184369365 0 0.0052724702184369365 0.0015147326698058683 0 0 0 -0.028510819761932205 -0.058622175711241564 -0.0068159459077855467 0 -0.0068159459077855467 0.054479094188419133 0 0 0 -0.0010357703807056112 -0.076104894457574845 0.040278707311673489 0 0.040278707311673489 -0.0065752727221282115 0 0 0 -0.020670041794925931 -0.053481240477533776 0.038834828008079469 0 0.038834828008079469 0.00096594527121807161 0 0 0 -0.01312882380157876 -0.027513906831512336 -0.030758148182409961 0 -0.030758148182409961 0.017539913013009167 0 0 0 -0.0024934984546257644 -0.019861087644293129 -0.027804330389875731 0 -0.027804330389875731 0.020090852742083359 0 0 0 5.7441274447557373e-05 -0.024032637972863868 -0.018701859528004072 0 -0.018701859528004072 0.057645664153501031 0 0 0 0.0084032565451592212 -0.021084508674230396 0.0096627588063285929 0 0.0096627588063285929 0.00058578793930763595 0 0 0 -0.005124680183731023 -0.055486797252537898 0.003846182840557595 0 0.003846182840557595 -0.0085224763603831341 0 0 0 -0.016002318403230263 -0.053859374450558356 -0.0074692047527840158 0 -0.0074692047527840158 -0.016852214132437822 0 0 0 -0.017677897145749046 -0.030621540453113834 -0.034191960500074003 0 -0.034191960500074003 0.0081976321658488865 0 0 0 -0.0056059770718159888 -0.030788170259482883 -0.032725695450952275 0 -0.032725695450952275 0.0082860145538785623 0 0 0 -0.0056255389264011635 -0.03421410285064895 -0.03232061400804076 0 -0.03232061400804076 0.0050637686812323168 0 0 0 -0.0072875835423542451 -0.035470929738263157 -0.034999137209502984 0 -0.034999137209502984 0.0060240004327345442 0 0 0 -0.0073617323263820422 -0.048762788107217514 0.050982860365417881 0 0.050982860365417881 -0.0043170381939845459 0 0 0 -0.013269956575300335 -0.03789453158825061 0.047092940560752083 0 0.047092940560752083 -0.0026721220046567809 0 0 0 -0.010141663398226513 -0.060530336581860453 0.0049615700644766482 0 0.0049615700644766482 -0.015680214948540258 0 0 0 -0.019052637882600178 -0.071002777984129933 -0.012630918024514503 0 -0.012630918024514503 -0.021726114262818827 0 0 0 -0.023182223061737197 -0.097511633693977529 -0.012178046352202959 0 -0.012178046352202959 0.0080618887781636062 0 0 0 -0.022362436228953508 -0.1674087620310164 0.026481163374430267 0 0.026481163374430267 0.012095677428538787 0 0 0 -0.038828271150619431 -0.082267783874963557 0.0083492680128842423 0 0.0083492680128842423 0.0018083857868102793 0 0 0 -0.020114849522038347 -0.031633764162328888 0.0074408509533767774 0 0.0074408509533767774 0.0084766109860308289 0 0 0 -0.0057892882940745157 -0.0060905153748995744 -0.012236582158787146 0 -0.012236582158787146 -0.012193357639583957 0 0 0 -0.0045709682536209661 -0.12826773422144128 -0.021350907122681985 0 -0.021350907122681985 0.0015413297316544672 0 0 0 -0.031681601122446681 -0.16501984165532796 -0.017826735051838127 0 -0.017826735051838127 -0.0032982290612547926 0 0 0 -0.042079517679145709 -0.022380442815755592 0.00082313784847891066 0 0.00082313784847891066 -0.016446740251013777 0 0 0 -0.009706795766692344 -0.037453127379159318 0.0078931762041342945 0 0.0078931762041342945 0.066697782000415873 0 0 0 0.0073111636553141457 -0.11550009325185048 -0.0019247609816609168 0 -0.0019247609816609168 0.00015665168512585259 0 0 0 -0.028835860391681206 -0.20755540706545164 0.0028064949385906424 0 0.0028064949385906424 -6.1557570148265683e-05 0 0 0 -0.051904241158899939 -0.067543391430200911 -0.0063711117292006847 0 -0.0063711117292006847 0.0088719536035654911 0 0 0 -0.014667859456658848 -0.098769426834594248 -0.019054793052708685 0 -0.019054793052708685 -0.012006107408826378 0 0 0 -0.027693883560855153 -0.074456442504380285 -0.01845002331973904 0 -0.01845002331973904 -0.0082135830182144438 0 0 0 -0.020667506380648668 -0.0045930501407087654 0.085239078064344526 0 0.085239078064344526 0.16608834008901985 0 0 0 0.040373822487077771 -0.15439164403799527 -0.0079002269606752301 0 -0.0079002269606752301 0.00012413870859177834 0 0 0 -0.038566876332350883 -0.10049476503193937 0.0031148502633529945 0 0.0031148502633529945 0.00042663665644579463 0 0 0 -0.025017032093873362 -0.030886178814951926 -0.012404258786207586 0 -0.012404258786207586 -0.014712945272811084 0 0 0 -0.01139978102194078 -0.03409189421765188 -0.01280330526970061 0 -0.01280330526970061 -0.011399018896862456 0 0 0 -0.011372728278628619 -0.037487048006222989 0.006735091844260653 0 0.006735091844260653 0.038315872898384423 0 0 0 0.0002072062230403615 -0.033879000247615636 -0.010751850087855192 0 -0.010751850087855192 0.0034929115320630755 0 0 0 -0.0075965221788881487 -0.020348286206485058 0.014531887650521005 0 0.014531887650521005 0.006079281706792318 0 0 0 -0.0035672511249231834 -0.01089235446021064 0.024134413719489101 0 0.024134413719489101 0.15397732845364609 0 0 0 0.035771243498358918 -0.08150397118780775 0.0072072614359346837 0 0.0072072614359346837 0.003170928097043349 0 0 0 -0.019583260772691038 -0.04212259345319417 -0.0019530908196437498 0 -0.0019530908196437498 0.0068843763338376426 0 0 0 -0.0088095542798391543 0.050343541619833676 0.016073221750115024 0 0.016073221750115024 0.059594348102457673 0 0 0 0.027484472430572726 -0.070327085990346608 -0.010355290365569925 0 -0.010355290365569925 -0.0027649908756900154 0 0 0 -0.018273019216509211 -0.24836938129987712 -0.00099233484930272287 0 -0.00099233484930272287 -0.00034247530848419139 0 0 0 -0.062177964152090343 -0.13461375740616138 -0.00058622924860179428 0 -0.00058622924860179428 -0.00042382657540113167 0 0 0 -0.033759395995390629 -0.056397548017747261 -0.0021150058573760448 0 -0.0021150058573760448 0.061982270858179013 0 0 0 0.0013961807101079277 -0.099610274165486068 -0.01526222489963653 0 -0.01526222489963653 -0.0064863005191419104 0 0 0 -0.026524143671156984 -0.11858764717009895 -0.021418262770644372 0 -0.021418262770644372 -0.0035792596244253183 0 0 0 -0.030541726698631064 0.019682486988492176 0.024842474086648164 0 0.024842474086648164 0.034638947350632554 0 0 0 0.013580358584781183 -0.047631839665019493 -0.011344188799817384 0 -0.011344188799817384 -0.00076955976405024273 0 0 0 -0.012100349857267378 -0.041685633751574927 -0.016104466315723348 0 -0.016104466315723348 0.011489967529182937 0 0 0 -0.007548916555597987 -0.013613417502167824 0.020616238443503222 0 0.020616238443503222 0.11050851953334018 0 0 0 0.024223775507793199 -0.016911915603501804 -0.0064201046636528014 0 -0.0064201046636528014 0.0013377411846349219 0 0 0 -0.0038935436047164984 -0.056180476902651766 -0.027687177511867264 0 -0.027687177511867264 0.03561422783907281 0 0 0 -0.0051415622658947391 -0.032604224142910893 -0.011009891337458333 0 -0.011009891337458333 0.044008710306187415 0 0 0 0.002851121540819096 -0.047924498517082463 -0.0035553954778360236 0 -0.0035553954778360236 0.015534628849071308 0 0 0 -0.0080974674170028391 -0.042288177474322008 0.01128748891664122 0 0.01128748891664122 -0.0013776294600118533 0 0 0 -0.010916451733583354 -0.015236570569619357 -0.019548337978955943 0 -0.019548337978955943 0.058263648982647798 0 0 0 0.01075676960325711 -0.050999925089002904 0.0031906929975119187 0 0.0031906929975119187 -0.0024732034824496707 0 0 0 -0.013368282142863137 0.0020274777558532825 -0.0018563790107011952 0 -0.0018563790107011952 0.050318816631311492 0 0 0 0.013086573596791176 -0.094943686365339175 0.0052665398486456596 0 0.0052665398486456596 0.00032693661697708043 0 0 0 -0.023654187437090468 -0.073696138673024159 -0.019196279079575287 0 -0.019196279079575287 0.026022896940267493 0 0 0 -0.011918310433189111 -0.079184533337572902 0.0067459321332366401 0 0.0067459321332366401 -0.0029319889801351778 0 0 0 -0.02052913057942702 -0.074923549654433708 -0.010429543352721615 0 -0.010429543352721615 0.0015219937291450769 0 0 0 -0.018350388981322241 -0.102485939596169 0.0044216252241995394 0 0.0044216252241995394 -0.00073400577686069668 0 0 0 -0.02580498634325739 -0.091220924790465924 0.0058280169855277689 0 0.0058280169855277689 0.00026192990732534782 0 0 0 -0.022739748720785144 -0.082311624946581452 0.051175024158387039 0 0.051175024158387039 -0.0012372676313432418 0 0 0 -0.02088722314448116 -0.05485445535184879 -0.0060348973683185016 0 -0.0060348973683185016 -0.019428633388129581 0 0 0 -0.018570772184994592 -0.061552342023759379 -0.01281258220829818 0 -0.01281258220829818 -0.019810041986791024 0 0 0 -0.020340596002637601 -0.056970785711604875 0.0055253993914566703 0 0.0055253993914566703 -0.012216344202999423 0 0 0 -0.017296782478651074 -0.054562837765727866 0.0026217120769866913 0 0.0026217120769866913 -0.014581295556186889 0 0 0 -0.017286033330478689 -0.040361290839144533 -0.0093342617138852807 0 -0.0093342617138852807 0.020363509095712717 0 0 0 -0.0049994454358579452 -0.032267313878203981 -0.033780047788058883 0 -0.033780047788058883 0.052218934201425968 0 0 0 0.0049879050808054803 -0.046816511058552848 -0.023477288508105584 0 -0.023477288508105584 0.020007351176609848 0 0 0 -0.0067022899704857371 -0.049327876473425403 -0.015093534618176752 0 -0.015093534618176752 0.036429787487326948 0 0 0 -0.0032245222465246415 -0.044971969253375432 -0.019070534749099269 0 -0.019070534749099269 0.018612393355036283 0 0 0 -0.0065898939745847873 -0.031700159975385389 -0.0020095012615383087 0 -0.0020095012615383087 0.048385454501113201 0 0 0 0.0041713236314319668 -0.032408909698358274 -0.0099282042148808591 0 -0.0099282042148808591 0.024403270363157037 0 0 0 -0.0020014098338003161 -0.13737573315826004 0.0017266897388526338 0 0.0017266897388526338 0.00067849342447146022 0 0 0 -0.034174309933447139 -0.25928816451980519 -0.0048822713845679561 0 -0.0048822713845679561 0.0041742359835321707 0 0 0 -0.063778482134068226 -0.022148784178224093 -0.0095655356204510933 0 -0.0095655356204510933 0.026191919137381836 0 0 0 0.0010107837397894393 -0.026459092572167997 -0.0036870982456133905 0 -0.0036870982456133905 0.057393510915382584 0 0 0 0.0077336045858036606 -0.074838665629780129 0.0048090415736757458 0 0.0048090415736757458 0.009694176437499924 0 0 0 -0.016286122298070124 -0.028939235529212515 0.0038974556055575075 0 0.0038974556055575075 -0.01130580627703413 0 0 0 -0.010061260451561662 -0.046614806775274534 -0.012247618152310683 0 -0.012247618152310683 -0.0081583665165463476 0 0 0 -0.013693293322955231 -0.032133239742000032 -0.0043052393566010011 0 -0.0043052393566010011 -0.014318824964779164 0 0 0 -0.011613016176694796 -0.026477249859081797 -0.048557186130463253 0 -0.048557186130463253 0.09832870847308231 0 0 0 0.017962864653500114 -0.096896044966685441 0.0017445107271292573 0 0.0017445107271292573 -0.0041254070637011739 0 0 0 -0.025255363007596669 -0.089936519432084847 0.0010907312356379303 0 0.0010907312356379303 -0.0021517008336081576 0 0 0 -0.023022055066423259 -0.12209854039831562 -0.0084092788153681888 0 -0.0084092788153681888 -0.0024517311272043152 0 0 0 -0.031137567881379991 -0.14076215269764486 -0.0097124023952039045 0 -0.0097124023952039045 -0.0071001454214167092 0 0 0 -0.036965574529765385 -0.11632180430854117 -0.0080541020410623606 0 -0.0080541020410623606 0.0012941128277814684 0 0 0 -0.028756922870189883 -0.024569583463565303 0.080927488984046891 0 0.080927488984046891 0.10294245072963393 0 0 0 0.019593216816517045 -0.0020601681089761348 -0.015713838964528382 0 -0.015713838964528382 0.033274603408358971 0 0 0 0.0078036088248457647 -0.012618676749786785 -0.0098380971439164799 0 -0.0098380971439164799 -0.015523029285349715 0 0 0 -0.007035426508784139 -0.057322389461453072 0.0045754821351603955 0 0.0045754821351603955 -0.002875858981690349 0 0 0 -0.01504956211078586 -0.056924769103474271 -0.0046185425463444556 0 -0.0046185425463444556 0.045262204147071688 0 0 0 -0.0029156412391006595 -0.082743634924570791 0.0053870143825613913 0 0.0053870143825613913 -0.00070321252324642702 0 0 0 -0.020861711861954298 0.0018190102642103856 0.033429890333990242 0 0.033429890333990242 0.026740783847642557 0 0 0 0.0071399485279628472 -0.033228774645658023 0.0059591175696305943 0 0.0059591175696305943 -0.011496556675330269 0 0 0 -0.011181332830247075 -0.033237063769914907 -0.016876484456678997 0 -0.016876484456678997 -0.0099396279055136982 0 0 0 -0.010794172918857082 0.026445267700229862 -0.065093748459187278 0 -0.065093748459187278 0.078997279219597316 0 0 0 0.026360636729956796 -0.2068727654470941 0.018725531125847517 0 0.018725531125847517 0.0018965540460742503 0 0 0 -0.051244052850254906 -0.023501256798963772 0.0029454667634712904 0 0.0029454667634712904 -0.011992137375748972 0 0 0 -0.0088733485436781872 -0.064301873294925635 0.0019060161836632131 0 0.0019060161836632131 -0.01581097900941051 0 0 0 -0.020028213076084031 -0.073708575665785023 -0.0072135859951909399 0 -0.0072135859951909399 -0.020691539998924188 0 0 0 -0.023600028916177303 -0.027184371738622693 0.010937950737011754 0 0.010937950737011754 0.01412458220539619 0 0 0 -0.0032649473833066215 -0.10613696768855396 0.0038618041165527084 0 0.0038618041165527084 0.0020785947720158848 0 0 0 -0.026014593229134547 -0.17932652461018322 -0.013084392332706196 0 -0.013084392332706196 0.0074313815288047785 0 0 0 -0.042973785770344559 -0.0045748238732796764 0.028060301723086933 0 0.028060301723086933 0.062518788658392666 0 0 0 0.014485991196278025 -0.042611365158643943 -0.01491886971951295 0 -0.01491886971951295 -0.0032804960250336634 0 0 0 -0.011472965295919346 -0.026317189225342999 0.0037830777301521568 0 0.0037830777301521568 0.057889406123257464 0 0 0 0.0078930542244785851 -0.021216179669311164 -0.022290768750693468 0 -0.022290768750693468 0.015723764843898702 0 0 0 -0.0013731037063531015 -0.037120341543034854 0.0023614135171783762 0 0.0023614135171783762 0.024889547204223095 0 0 0 -0.0030576985847029364 -0.032058485519643694 0.0056699747644373298 0 0.0056699747644373298 0.005871476732640428 0 0 0 -0.0065467521967508182 -0.025075459619456533 0.00025746750847104678 0 0.00025746750847104678 -0.015717540641985252 0 0 0 -0.010198250065360445 -0.049867017330999325 0.0027881337199346969 0 0.0027881337199346969 0.0024318934652657522 0 0 0 -0.011858780966433389 -0.041832212128427401 -0.020449516875792641 0 -0.020449516875792641 0.12388905425101665 0 0 0 0.020514210530647323 -0.043995697189135236 -0.021098614180957653 0 -0.021098614180957653 0.11432674622677234 0 0 0 0.017582762259409281 -0.0384679106925509 -0.023801052463972128 0 -0.023801052463972128 -0.00019484779077116876 0 0 0 -0.009665689620830531 -0.033072948820301207 -0.022248636271293032 0 -0.022248636271293032 -0.00062540506066399715 0 0 0 -0.008424588470241301 -0.017166151603155377 0.039551603767479238 0 0.039551603767479238 0.031542763684890396 0 0 0 0.0035941530204335326 -0.024812714892014531 0.040046084466734078 0 0.040046084466734078 0.029206770387053993 0 0 0 0.0010985138737598099 -0.017134594626935229 0.045306731503013078 0 0.045306731503013078 0.015671814369897064 0 0 0 -0.00036569506425965237 0.014363248391795036 0.043817976784384371 0 0.043817976784384371 0.023283086068888181 0 0 0 0.0094115836151706933 -0.027488918067787176 0.0039621009568420107 0 0.0039621009568420107 -0.0091634680960606483 0 0 0 -0.0091630965409619566 -0.024462541650993153 0.0028963754646370021 0 0.0028963754646370021 0.07541047746439189 0 0 0 0.012736983953349684 -0.032705125156554209 0.00032158547643904023 0 0.00032158547643904023 0.042598709198753387 0 0 0 0.002473396010549779 -0.079868143411809811 -0.016548926252469731 0 -0.016548926252469731 -0.0007710757880750041 0 0 0 -0.020159804799971259 -0.091314187387810164 -0.0066869538744386836 0 -0.0066869538744386836 -0.0004677199299666368 0 0 0 -0.022945476829444256 -0.15233732158974761 0.015314161868126397 0 0.015314161868126397 -0.0012249156758574742 0 0 0 -0.03839055931640134 -0.012951640413060024 0.024763997720840751 0 0.024763997720840751 0.031551868437408717 0 0 0 0.0046500570060871785 -0.009101562125253912 0.026803653580107646 0 0.026803653580107646 0.040134982730971991 0 0 0 0.0077583551514295163 -0.027298358860859739 0.0059497124563780007 0 0.0059497124563780007 -0.0068797960183231976 0 0 0 -0.0085445387197957395 -0.029527450512068461 0.0048822486990839796 0 0.0048822486990839796 -0.011825026521185771 0 0 0 -0.01033811925831356 -0.15889386508014108 -0.01461312061058586 0 -0.01461312061058586 -0.0058492873018207714 0 0 0 -0.041185788095490478 -0.10157695267452464 0.004337424738521764 0 0.004337424738521764 -0.0012912284044657857 0 0 0 -0.025717045269747614 -0.092125973375880577 0.0065986902909505405 0 0.0065986902909505405 -0.0020388666757074209 0 0 0 -0.023541210012896982 -0.010617660123611206 0.027201233141985082 0 0.027201233141985082 0.073697217901909973 0 0 0 0.015769889444574581 -0.033590095861230962 -0.01025842364360785 0 -0.01025842364360785 0.002733383317629734 0 0 0 -0.0077141781359003625 -0.028939399290508448 -0.0020285560910309349 0 -0.0020285560910309349 -0.013863674622199963 0 0 0 -0.010700768478177105 -0.016327199108893711 0.001009079047752881 0 0.001009079047752881 -0.0093888247659161261 0 0 0 -0.0064290059687024531 -0.060328112455830363 -0.026520738335564342 0 -0.026520738335564342 0.0047348620584772849 0 0 0 -0.013898312599338158 -0.061507504070863923 -0.017479104341732554 0 -0.017479104341732554 -0.0023732059999315713 0 0 0 -0.015970177517698844 -0.033684170355629588 -0.011329580338365813 0 -0.011329580338365813 0.027741768448233409 0 0 0 -0.0014856004768490569 -0.0050533362608326596 0.019417814148970231 0 0.019417814148970231 0.017729406487357574 0 0 0 0.0031690175566312165 -0.085702287789661963 0.055481064396925683 0 0.055481064396925683 0.0023530595239603658 0 0 0 -0.020837307066425531 -0.094513166278801047 -0.0013289035413375505 0 -0.0013289035413375505 0.0040152200391636583 0 0 0 -0.022624486559909368 -0.15809159458907163 0.0019680521476743429 0 0.0019680521476743429 0.010840496934321209 0 0 0 -0.036812774413687577 -0.0042215228253165149 -0.0035518253096555874 0 -0.0035518253096555874 -0.025860246637348316 0 0 0 -0.0075204423656662356 -0.0098521698374091637 -0.0085033294906749213 0 -0.0085033294906749213 -0.027930957226608655 0 0 0 -0.0094457817660043575 -0.081443837813535702 0.0070576405042514639 0 0.0070576405042514639 -0.00025982542798396596 0 0 0 -0.020425915810379905 -0.07092750494888303 0.005377170521995274 0 0.005377170521995274 -0.0013838011675519415 0 0 0 -0.018077826529108741 -0.041118223192717178 -0.0038998173518011332 0 -0.0038998173518011332 0.016740092172243454 0 0 0 -0.0060945327551184467 -0.10275766561023499 0.008271171502066188 0 0.008271171502066188 0.0022978967479071466 0 0 0 -0.025114942215581929 -0.11106178828786635 -0.020364148153550816 0 -0.020364148153550816 -0.0077392079029460076 0 0 0 -0.029700249047703072 -0.0010125154441756839 0.0015072544710895697 0 0.0015072544710895697 -0.020254038482525428 0 0 0 -0.0053166384816753474 -0.063748761063546766 0.064138119091541657 0 0.064138119091541657 0.0066652295572735554 0 0 0 -0.014270882876568525 -0.030130251006933378 0.004539994176209732 0 0.004539994176209732 -0.010044060827184877 0 0 0 -0.010043577958529563 0.027501432320069352 0.018198728891058114 0 0.018198728891058114 0.06722699684022504 0 0 0 0.02368210729007364 0.02214172679925485 0.038079002551548752 0 0.038079002551548752 0.10368415284121989 0 0 0 0.031456469910118683 -0.14760895451167255 0.016316374452971072 0 0.016316374452971072 0.02655396835679516 0 0 0 -0.03026374653871932 -0.0018872537661192984 0.039912488074276553 0 0.039912488074276553 0.10930781677367341 0 0 0 0.026855140751888523 0.010412163054833376 0.033653626728816527 0 0.033653626728816527 0.072161008066902177 0 0 0 0.020643292780433878 -0.062372229431846657 0.0059858886372106401 0 0.0059858886372106401 0.0013333739867357891 0 0 0 -0.015259713861277738 -0.044398458602182209 0.0023709097545971097 0 0.0023709097545971097 -0.0024866487116805593 0 0 0 -0.011721276828465681 -0.13100768607481883 0.042801219875894359 0 0.042801219875894359 0.013796038390287091 0 0 0 -0.029302911921132879 -0.057124580935425634 -0.016296002365209991 0 -0.016296002365209991 0.056540291726580746 0 0 0 -0.00014607230221122536 -0.025030678670205312 0.025100224717520395 0 0.025100224717520395 0.11704925947562404 0 0 0 0.02300464520135467 -0.041656862110072246 -0.021756663447426799 0 -0.021756663447426799 0.0007414980950460337 0 0 0 -0.010228841003756595 -0.1099387612438075 -0.0047095722815377883 0 -0.0047095722815377883 0.0035128850918763471 0 0 0 -0.026606469037982833 -0.19268474791701479 0.010269082090063331 0 0.010269082090063331 0.011634342550124077 0 0 0 -0.045262601341722553 -0.047346304997683553 0.024147710945727097 0 0.024147710945727097 -0.0072792646482882084 0 0 0 -0.013656392411493523 -0.022417137110343932 -0.026061530886444584 0 -0.026061530886444584 0.031361558073607521 0 0 0 0.002236105240815911 -0.04049861106734659 -0.015337465826311014 0 -0.015337465826311014 0.020297478962324145 0 0 0 -0.0050502830262556808 0.0021962562443227363 0.02051730711872907 0 0.02051730711872907 0.019489239040908407 0 0 0 0.0054213738213077858 -0.10049009068903658 -0.019286589773328058 0 -0.019286589773328058 -0.013082629412056707 0 0 0 -0.028393180025273329 -0.094248204233417537 0.0048491882700088529 0 0.0048491882700088529 0.0024545330697947343 0 0 0 -0.022948417790905715 -0.13378528454399333 -0.0094863379491708089 0 -0.0094863379491708089 0.0080686080622768622 0 0 0 -0.031429169120429062 -0.030208481658738587 -0.024721372576150161 0 -0.024721372576150161 0.046133701616667078 0 0 0 0.0039813049894820707 -0.075139910356114809 0.0023524408610570841 0 0.0023524408610570841 0.0041174316932240801 0 0 0 -0.017755619665722727 -0.042667743140759197 0.0046911988797032666 0 0.0046911988797032666 0.094252102268804067 0 0 0 0.012896089782011214 -0.026006656925082371 -0.00023045520080154961 0 -0.00023045520080154961 -0.0086674628829514315 0 0 0 -0.0086685299520084507 -0.033148477926079445 -0.011069363715066477 0 -0.011069363715066477 0.013635404787044281 0 0 0 -0.004878268284758791 -0.11170811705607359 0.002401200680045637 0 0.002401200680045637 0.0023356095865796345 0 0 0 -0.027343126867373509 -0.1921415751964782 -0.0089774979874896466 0 -0.0089774979874896466 0.0052809604666833043 0 0 0 -0.04671515368244869 -0.08137541590323305 -0.01956607456914955 0 -0.01956607456914955 0.0067154819432298368 0 0 0 -0.018664983490000793 -0.043131396834588359 -0.02156297529742289 0 -0.02156297529742289 0.031869744735460226 0 0 0 -0.0028154130247820264 -0.032751547764169803 -0.01609039988410127 0 -0.01609039988410127 0.058608068570200733 0 0 0 0.006464130201507795 -0.058081182787516283 0.0032322786483936217 0 0.0032322786483936217 0.0044332651119761146 0 0 0 -0.013411979418885028 -0.043141739652382827 -0.020013676357102078 0 -0.020013676357102078 0.0035326258186390014 0 0 0 -0.009902278458435998 -0.061825653211202064 -0.023987896332555825 0 -0.023987896332555825 0.0012214023265310278 0 0 0 -0.015151062721167761 -0.068870742423654874 0.0035500902221049582 0 0.0035500902221049582 0.0040563633321867576 0 0 0 -0.016203594772866994 -0.040790340090896965 -0.022486860604414571 0 -0.022486860604414571 0.0014954524900223642 0 0 0 -0.0098237219002186571 -0.026714390078278877 0.00058720629790597197 0 0.00058720629790597197 -0.015892711411671107 0 0 0 -0.010651775372487498 -0.11296557200017901 0.00054020556726264157 0 0.00054020556726264157 0.0017284597291957748 0 0 0 -0.02780927806774583 -0.20208270754231553 -0.001697735158719571 0 -0.001697735158719571 0.0025207015494416174 0 0 0 -0.049890501498218415 -0.051195062028159322 -0.0098413887850126169 0 -0.0098413887850126169 -0.0031500900816646416 0 0 0 -0.013586288027455928 0.011814387028698081 0.019476456285812738 0 0.019476456285812738 0.083912770125015523 0 0 0 0.023931789288428429 0.0018354983167412353 0.026715654326772365 0 0.026715654326772365 0.062772720735275289 0 0 0 0.016152054763004076 -0.03726934762638634 -0.0080064152317830956 0 -0.0080064152317830956 -0.0027930145213890256 0 0 0 -0.010015590536943897 0.0035339420113529307 0.016048443004800985 0 0.016048443004800985 0.10721962384743566 0 0 0 0.027688391464697037 -0.016604120663245431 -0.017624497112217259 0 -0.017624497112217259 0.013079849572023627 0 0 0 -0.00088106777280547166 -0.05158536584521739 -0.019508790995258304 0 -0.019508790995258304 0.015128521196015043 0 0 0 -0.0091142111623004896 0.0040184289653061311 -0.00060852958996449004 0 -0.00060852958996449004 0.077514264684576117 0 0 0 0.020383173412470534 -0.0011968977601632125 -0.0018612948601760548 0 -0.0018612948601760548 0.14291584658142309 0 0 0 0.035429737205314976 -0.13002285263677435 -0.014106343837842844 0 -0.014106343837842844 0.025536485107039097 0 0 0 -0.026121591882433848 -0.067249843185848451 0.0045759769447850287 0 0.0045759769447850287 -0.0022269477873268773 0 0 0 -0.017369197743293843 -0.026998616467392714 0.0083503760451310617 0 0.0083503760451310617 -0.0016612951861435911 0 0 0 -0.0071649779133840762 -0.088590734286261075 0.047818958873943607 0 0.047818958873943607 -0.0050209753949341795 0 0 0 -0.023402927420298703 -0.0093171140103628369 -0.02554755926352037 0 -0.02554755926352037 0.020087967392024453 0 0 0 0.0026927133454153207 -0.023699308664096981 0.0014820129724408585 0 0.0014820129724408585 -0.012499550726574118 0 0 0 -0.0090497148476677766 -0.060055706149990326 0.0014934824143802289 0 0.0014934824143802289 0.014380031053424482 0 0 0 -0.011418918774141463 0.0228681350826756 0.016441545461480658 0 0.016441545461480658 0.065430759555671791 0 0 0 0.022074723659586848 -0.043333286963593183 -0.0089621153673697246 0 -0.0089621153673697246 -0.017434845030836414 0 0 0 -0.015192032998607392 -0.029847532954244714 -0.0079036485851327609 0 -0.0079036485851327609 0.002316932604734534 0 0 0 -0.0068826500873775884 -0.022766047096862113 -0.01337883570938006 0 -0.01337883570938006 0.0040521933688229574 0 0 0 -0.004678463432009782 -0.0072658226061234621 0.0058990961079927184 0 0.0058990961079927184 0.035591181729741184 0 0 0 0.0070813397809043055 0.0015681396579807494 0.00098046657831457606 0 0.00098046657831457606 0.074578419246358219 0 0 0 0.019036639726084714 0.0034202057440350653 -0.0065649484465385433 0 -0.0065649484465385433 0.13328748181804728 0 0 0 0.034176921890520573 -0.010060392208233911 -0.011428487772622786 0 -0.011428487772622786 0.073432257530222561 0 0 0 0.015842966330497081 -0.019536509142633579 0.020394095395765557 0 0.020394095395765557 0.036343218339663738 0 0 0 0.0042016772992575536 -0.014442975724110296 -0.023576527176923309 0 -0.023576527176923309 -0.0039148052811604495 0 0 0 -0.0045894452513176587 0.00052597811500203109 -0.045934666126485044 0 -0.045934666126485044 0.040127555277718129 0 0 0 0.010163383348180037 -0.055803537036807321 -0.019148211867289322 0 -0.019148211867289322 0.0040094142008701983 0 0 0 -0.012948530708984302 -0.081660084056970256 0.0051698166759459093 0 0.0051698166759459093 0.0016787368257115687 0 0 0 -0.019995336807814665 -0.070235857801898366 0.0070996428441727853 0 0.0070996428441727853 0.0028211801582400664 0 0 0 -0.016853669410914596 -0.12660513182408301 0.0074090678161577161 0 0.0074090678161577161 0.052186008273206852 0 0 0 -0.018604780887719025 -0.018165787983271842 0.00084373882448976478 0 0.00084373882448976478 0.020001713392122866 0 0 0 0.00045898135221278391 -0.017260511402474532 -0.010088343431517904 0 -0.010088343431517904 0.045818763391956119 0 0 0 0.0071395629973702857 -0.026317496407743831 0.009070496868720938 0 0.009070496868720938 0.0058805705224285135 0 0 0 -0.005109231471328822 -0.0001454164580522721 0.00038431811330941201 0 0.00038431811330941201 -0.026060777578799987 0 0 0 -0.0065515485092130787 -0.034297175110246006 0.0043014936622483265 0 0.0043014936622483265 -0.0071338360264367202 0 0 0 -0.010357752784170679 -0.042759391375577147 -0.022440335414787446 0 -0.022440335414787446 0.015377651589605079 0 0 0 -0.0068454349464930342 -0.023111625877717892 0.0016307020845752686 0 0.0016307020845752686 -0.016461845263098358 0 0 0 -0.0098933677852040634 -0.026966393540276634 0.054239896692538592 0 0.054239896692538592 0.0040392481022086812 0 0 0 -0.0057317863595172103 -0.029007190664335741 0.046467708676509289 0 0.046467708676509289 0.0082878942507600417 0 0 0 -0.0051798241033936543 -0.029421123006423827 -0.028595715379989173 0 -0.028595715379989173 0.0027884524489175389 0 0 0 -0.0066581676393765166 0.01715257073109943 -0.090701630696858465 0 -0.090701630696858465 0.16015354357467043 0 0 0 0.04432652857644246 -0.024438806368507478 0.0022052282973697322 0 0.0022052282973697322 -0.014563590294620539 0 0 0 -0.0097505991657820049 -0.052841269604372409 -0.011154406593078092 0 -0.011154406593078092 0.003097144242830252 0 0 0 -0.012436031340385512 0.0014879144067502237 0.00065138907001571766 0 0.00065138907001571766 9.3562405992564379e-05 0 0 0 0.00039536920318583579 -0.010440611996913374 0.0057812912899457558 0 0.0057812912899457558 0.15235522466917129 0 0 0 0.035478653168064422 0.008971607358378755 0.0017245208433163128 0 0.0017245208433163128 0.13035975090729288 0 0 0 0.034832839566417688 0.0050475076178602141 -0.0035420475446934496 0 -0.0035420475446934496 0.067564710945493545 0 0 0 0.018153054640838606 0.0022881413903763637 -0.00105350421284745 0 -0.00105350421284745 0.00028901208166409731 0 0 0 0.00064428836800978218 -0.00037285988164338218 0.00083255659939318605 0 0.00083255659939318605 0.0015829228328797229 0 0 0 0.00030251573780902969 -0.0075496298536397166 -0.0073921529039903018 0 -0.0073921529039903018 0.085467059213089946 0 0 0 0.019479357339862835 -0.00038357632196772684 -0.0013215268361754795 0 -0.0013215268361754795 0.0024509973895376902 0 0 0 0.00051685526689215777 -0.02701376108424311 0.00064387066297356705 0 0.00064387066297356705 -0.013998119346003188 0 0 0 -0.010252970107561573 -0.037053668338049628 -0.020913014485769182 0 -0.020913014485769182 -0.005277211464725505 0 0 0 -0.010582719950693816 -0.068642945885287257 0.0054971145457303472 0 0.0054971145457303472 0.0077158008113206167 0 0 0 -0.015231786268491684 -0.049765727392344195 -0.027465296188311394 0 -0.027465296188311394 0.0049625803230626264 0 0 0 -0.011200786767320503 -0.033885392193705392 -0.0012924020778647509 0 -0.0012924020778647509 -0.015912836607268249 0 0 0 -0.012449557200243416 -0.028747650463203378 0.037176825461766816 0 0.037176825461766816 -0.0053906161402785813 0 0 0 -0.0085345666508702678 -0.024560310848600553 -0.03039253871273595 0 -0.03039253871273595 0.0049437677715475914 0 0 0 -0.0049041357692634069 -0.0063054995948418346 -0.0065131100043574475 0 -0.0065131100043574475 0.060921123299319646 0 0 0 0.013653905926119481 -0.011839438508033984 0.000307304565758032 0 0.000307304565758032 0.11474793070335942 0 0 0 0.025727123048831346 -0.056117991491520816 0.0089672258827677709 0 0.0089672258827677709 0.055716244646894481 0 0 0 -0.00010043671115657349 -0.062711760639187444 4.78315166719534e-05 0 4.78315166719534e-05 0.008015307477850564 0 0 0 -0.013674113290334203 -0.029676899869163609 -0.012143822446440097 0 -0.012143822446440097 0.043218156034089183 0 0 0 0.0033853140412313798 -0.027440353877926621 0.0063823435439575027 0 0.0063823435439575027 0.087061368932693728 0 0 0 0.014905253763691756 -0.032457988853444836 -0.032810036636627016 0 -0.032810036636627016 0.0086772821173994874 0 0 0 -0.0059451766840114828 -0.023689141701489162 0.0083729114591242423 0 0.0083729114591242423 -0.00058264835552916672 0 0 0 -0.0060679475142545788 -0.026314806957055681 -0.032329140669490886 0 -0.032329140669490886 0.014784258782366333 0 0 0 -0.0028826370436721982 -0.03915550798751144 0.035814046506604136 0 0.035814046506604136 -0.0015694201878933001 0 0 0 -0.010181232043850796 -0.032659669315810852 -0.0013268336128914038 0 -0.0013268336128914038 0.022278099161581966 0 0 0 -0.0025953925385572563 -0.021506553673989209 -0.0037727197016864944 0 -0.0037727197016864944 0.025990298179331683 0 0 0 0.0011209361263355977 -0.049330295648737213 0.0033835140419157198 0 0.0033835140419157198 -0.0028948574278270488 0 0 0 -0.013056288269141063 -0.048338796817220607 -0.0078256839135701084 0 -0.0078256839135701084 0.03872669052291941 0 0 0 -0.0024030265735752662 0.01114928011069069 -0.027412314084653611 0 -0.027412314084653611 0.02034886888688936 0 0 0 0.0078745372493949917 -0.035104894732647038 -0.022037662639963096 0 -0.022037662639963096 -0.002177702973153596 0 0 0 -0.0093206494264501498 0.039409995089763006 -0.019350226867245912 0 -0.019350226867245912 0.026253120033268518 0 0 0 0.016415778780757895 -0.022994487873081421 -0.0052457158063905773 0 -0.0052457158063905773 0.054008239661022417 0 0 0 0.0077534379469852699 -0.035290107092320333 -0.0071790015357433845 0 -0.0071790015357433845 0.016765548765478422 0 0 0 -0.0046311395817105194 -0.076379602302284966 0.0045510967196917794 0 0.0045510967196917794 -0.0024511068213868836 0 0 0 -0.019707677280917962 -0.050348695195811491 -0.010086008152635507 0 -0.010086008152635507 0.043723654375548815 0 0 0 -0.0016562602050656967 -0.050949991480739192 -0.0088471818750124852 0 -0.0088471818750124852 0.053374236949235251 0 0 0 0.00060606136712399589 0.023923882370740029 0.060189450253599536 0 0.060189450253599536 0.18239017680024067 0 0 0 0.051578514792745195 -0.029145132155918269 -0.0180510821346722 0 -0.0180510821346722 0.20858591617424477 0 0 0 0.044860196004581632 0.010122274717734747 0.017325638521151869 0 0.017325638521151869 0.079967403581333585 0 0 0 0.022522419574767083 -0.02819488778964778 0.022470352006266466 0 0.022470352006266466 0.048071953326877026 0 0 0 0.004969266384307322 -0.056804765747066721 -0.0095168615156407885 0 -0.0095168615156407885 0.00042379824971394697 0 0 0 -0.014095241874338305 -0.049743394253900994 0.0036614996442078896 0 0.0036614996442078896 -0.0053192079098316261 0 0 0 -0.013765650540933167 -0.096503091494961335 -0.0096660632456773751 0 -0.0096660632456773751 -0.014588068403657166 0 0 0 -0.027772789974654623 -0.077006838271112946 0.0015783850579020398 0 0.0015783850579020398 -0.0092600916599423766 0 0 0 -0.021566732482763824 -0.01598317556043493 0.0047995343128414761 0 0.0047995343128414761 -0.01116464765893687 0 0 0 -0.0067869558048429448 -0.10845173411697463 -0.0083169683299551458 0 -0.0083169683299551458 -0.0021229626605099418 0 0 0 -0.027643674194371137 -0.094606202301348266 -0.009352790644967468 0 -0.009352790644967468 -0.021469781344082672 0 0 0 -0.029018995911357731 -0.1465668401019376 0.006889835148021729 0 0.006889835148021729 -0.00096135703775264772 0 0 0 -0.036882049284922558 -0.12926214876286357 0.0077401608926936632 0 0.0077401608926936632 -0.027615875937747336 0 0 0 -0.039219506175152727 -0.054198024501567965 -0.020003930086844535 0 -0.020003930086844535 0.022505898085909304 0 0 0 -0.0079230316039146653 -0.021721352546612747 0.0034527177115758227 0 0.0034527177115758227 -0.013032005654918986 0 0 0 -0.0086883395503829369 0.0224844023516928 0.030816220820906182 0 0.030816220820906182 0.027368520517430994 0 0 0 0.012463230717280949 -0.028634925682313406 0.0043558628755352435 0 0.0043558628755352435 0.074632529668188119 0 0 0 0.011499400996468623 -0.014809029838888359 0.031801093646105741 0 0.031801093646105741 0.073538555916752582 0 0 0 0.014682381519466051 -0.032824936826832241 -0.03323828636058257 0 -0.03323828636058257 0.031427700777208245 0 0 0 -0.000349309012405985 -0.0040049340127481601 0.00032102202233019739 0 0.00032102202233019739 0.0081587783353182803 0 0 0 0.001038461080642419 0.0013497311322072849 -0.0060820276777895366 0 -0.0060820276777895366 0.024851562887598988 0 0 0 0.0065503235049515687 0.00184294176715748 0.0060561665792082664 0 0.0060561665792082664 0.054820931465623578 0 0 0 0.014165968308195154 -0.0030540598151649516 -0.00063633140216223794 0 -0.00063633140216223794 0.0044807566129151932 0 0 0 0.00035667419943739387 -0.011911436002346017 0.0067094736405479138 0 0.0067094736405479138 0.00088581776640776766 0 0 0 -0.0027564045589845224 -0.012827755419408227 -0.013844346596135426 0 -0.013844346596135426 0.007910876287079871 0 0 0 -0.0012292197830821028 -0.10296860165771363 -0.014615626278940376 0 -0.014615626278940376 -0.034260704683802309 0 0 0 -0.03430732658537898 -0.13877834202527928 0.014706500343810663 0 0.014706500343810663 -0.046174295617520462 0 0 0 -0.046238159410699933 -0.15813914094695899 0.014964087223333955 0 0.014964087223333955 -0.021464532069979975 0 0 0 -0.044900918254234742 -0.11841680706238589 -0.014403256736469 0 -0.014403256736469 -0.016395535141527931 0 0 0 -0.033703085550978451 -0.030438599248525572 -0.03353254375868997 0 -0.03353254375868997 0.011517113925230138 0 0 0 -0.004730371330823796 -0.049694266384478894 0.0035172604032894378 0 0.0035172604032894378 0.002542486325811763 0 0 0 -0.011787945014666783 -0.039227704358808679 -0.023019086664896618 0 -0.023019086664896618 0.0060517615291658111 0 0 0 -0.0082939857074107171 -0.03703055206107278 -0.022906246711896242 0 -0.022906246711896242 -0.0026808399147079109 0 0 0 -0.0099278479939451658 -0.042962560440767156 0.00256648966703039 0 0.00256648966703039 0.0025589606627469536 0 0 0 -0.010100899944505052 -0.030594493496348227 0.0049608887274245573 0 0.0049608887274245573 -0.0054764779016953195 0 0 0 -0.0090177428495108788 -0.030450377014698115 0.0056018466725513243 0 0.0056018466725513243 -0.0049980261001496325 0 0 0 -0.008862100778711933 -0.05160144926157241 -0.042009717286128984 0 -0.042009717286128984 0.13180895844169049 0 0 0 0.02005187729502951 0.012469260942887465 -0.0081592073362719425 0 -0.0081592073362719425 0.37492292510814618 0 0 0 0.096848046512758357 -0.067207381716966288 -0.014196771772879924 0 -0.014196771772879924 0.015395605227130238 0 0 0 -0.012952944122459023 -0.024195105040081571 -0.0026484865192953067 0 -0.0026484865192953067 0.047156786798666639 0 0 0 0.0057404204396462599 -0.034503788357885645 -0.012665595838893151 0 -0.012665595838893151 0.027951068403373247 0 0 0 -0.0016381799886280302 -0.031464347139272368 0.0069158225695939157 0 0.0069158225695939157 0.0069957927571507802 0 0 0 -0.0061171385955304004 -0.019471283893603752 0.030424001627611386 0 0.030424001627611386 0.057071017821596293 0 0 0 0.0093999334819978575 -0.028758329638382762 -0.014081845324904751 0 -0.014081845324904751 -0.0019933330340748956 0 0 0 -0.0076879156681143312 0.010993561801395296 -0.030471796589089439 0 -0.030471796589089439 0.060474925507696675 0 0 0 0.017867121827273014 -0.017998008823681751 -0.0054975207388522768 0 -0.0054975207388522768 0.017561357353004278 0 0 0 -0.00010916286766935596 -0.043930785356584678 0.02829408409762979 0 0.02829408409762979 0.0026115666938864024 0 0 0 -0.010329804665675013 -0.024602249885700811 -0.027799883780152079 0 -0.027799883780152079 0.027505705429500926 0 0 0 0.00072586388594997331 -0.017008029514279599 -0.025785016128596433 0 -0.025785016128596433 0.023367755635544274 0 0 0 0.0015899315303162798 -0.022417234704979028 -0.0025461720595566228 0 -0.0025461720595566228 -0.012499861848388472 0 0 0 -0.0087292741383419026 -0.018181973231836013 -0.0079450716836084179 0 -0.0079450716836084179 0.065125393112141272 0 0 0 0.011735854970076398 -0.031514576864277534 -0.0086503336522817352 0 -0.0086503336522817352 -0.010050828207881321 0 0 0 -0.010391351268039722 -0.018533620584937016 -0.007291977798057403 0 -0.007291977798057403 -0.032177407963083993 0 0 0 -0.012677757137005308 -0.054725819786194362 0.0045788131266120066 0 0.0045788131266120066 -0.0061149801252794499 0 0 0 -0.015210199977868443 -0.049044841385567896 0.0048169761999307592 0 0.0048169761999307592 -0.0074516954556871854 0 0 0 -0.014124134210313775 -0.050685160967146509 -0.0040413714800163515 0 -0.0040413714800163515 0.03156465779646879 0 0 0 -0.0047801257926694289 -0.049385576608194592 -0.017950894677409124 0 -0.017950894677409124 0.037281994960438936 0 0 0 -0.0030258954119389281 -0.041330448609847532 0.0022903037841289359 0 0.0022903037841289359 -0.00475652420329416 0 0 0 -0.011521743203285428 -0.03782008107029744 0.0040983941593024792 0 0.0040983941593024792 0.0033834354643263662 0 0 0 -0.0086091614014927702 -0.040881765086524892 0.0025585313726891349 0 0.0025585313726891349 0.0026551944422586616 0 0 0 -0.0095566426610665597 -0.011284959433938979 0.0082625452895027096 0 0.0082625452895027096 -0.020447481110835386 0 0 0 -0.0079331101361936329 -0.0041860289637478121 0.009903359366380482 0 0.009903359366380482 0.0015280595602175095 0 0 0 -0.00066449235088256176 -0.004651984746643148 -0.014762958236562984 0 -0.014762958236562984 0.017734093228119335 0 0 0 0.0032705271203690572 -0.01314042775939947 -0.01249804133581206 0 -0.01249804133581206 -0.0079391708331587596 0 0 0 -0.0052698996481395366 -0.014013143298204703 -0.040601375239743324 0 -0.040601375239743324 0.13055684550086755 0 0 0 0.029135925550665687 -0.002717209673678056 0.020080512606294176 0 0.020080512606294176 0.04204687438891952 0 0 0 0.00983241617881081 -0.001095711242172337 -0.0033126930662767951 0 -0.0033126930662767951 -0.0039405870936373155 0 0 0 -0.0012590745839524686 -0.002481588358863529 -0.016765480251520248 0 -0.016765480251520248 0.019440405502717306 0 0 0 0.0042397042859634859 -0.0011639782451560166 0.0038431052876575222 0 0.0038431052876575222 -0.0039153218628937836 0 0 0 -0.0012698250270126721 -0.04832602369760064 0.038067763543903121 0 0.038067763543903121 -0.004678608055280975 0 0 0 -0.013251157938220626 -0.028363258715859985 -0.031870526163663301 0 -0.031870526163663301 0.014384527554610393 0 0 0 -0.0034946827903123978 -0.02095338745886155 -0.031085556234462741 0 -0.031085556234462741 0.013742659397626866 0 0 0 -0.0018026820153086431 -0.045020453568261468 -0.0072064466557662452 0 -0.0072064466557662452 0.044083461387099711 0 0 0 -0.00023424804529044354 0.0015461387809052596 0.013086745883887196 0 0.013086745883887196 0.025530313881539257 0 0 0 0.0067691131656113512 -0.00084270264950969676 -0.00063394924362727978 0 -0.00063394924362727978 0.0020224442018390576 0 0 0 0.00029493538808234021 -0.0015815813715724936 9.7989109499874161e-05 0 9.7989109499874161e-05 0.0045361753272583627 0 0 0 0.00073864848892091217 -0.00030277899476183201 -0.010972537031892271 0 -0.010972537031892271 0.0060778282321107824 0 0 0 0.0014437623093372931 -0.02705775084746892 -0.0052002383926239848 0 -0.0052002383926239848 -0.023401148784034875 0 0 0 -0.012614724907875852 0.01454102652063867 -0.030192471917973973 0 -0.030192471917973973 0.0080772793830380385 0 0 0 0.0056545764759191736 0.010910939009513676 0.00050804894662836997 0 0.00050804894662836997 0.075845234533287176 0 0 0 0.021689043385700213 0.014563886850483154 -0.0047033541525661193 0 -0.0047033541525661193 0.14163712442248033 0 0 0 0.039050252818240816 -0.025915028471262529 0.0062187593248508701 0 0.0062187593248508701 -0.0076575889187296652 0 0 0 -0.0083931543474980441 -0.076535992551996168 0.039148708437298951 0 0.039148708437298951 0.0017357727850377813 0 0 0 -0.018700054941739319 -0.083892629466775448 0.03683622339192788 0 0.03683622339192788 -0.0018875364236965453 0 0 0 -0.021445041472617943 -0.028683697877408133 -0.0081217589265089041 0 -0.0081217589265089041 -0.013647247919006837 0 0 0 -0.01058273644910377 -0.040167104553193125 -0.0028468468785528174 0 -0.0028468468785528174 0.014513085560636307 0 0 0 -0.0064135047481392003 -0.04470728029699466 -0.022842615056204496 0 -0.022842615056204496 0.0042212841204788895 0 0 0 -0.01012149904412895 -0.037206207986054854 -0.027358519003968226 0 -0.027358519003968226 0.019122569181183997 0 0 0 -0.0045209097012177141 -0.052469010647885561 0.039629852381873498 0 0.039629852381873498 -0.0042158743837941159 0 0 0 -0.014171221257919697 -0.026447875018306588 -0.030806343903289901 0 -0.030806343903289901 0.015655577109527474 0 0 0 -0.0026980744771947229 -0.029858466690467877 -0.032529016965024971 0 -0.032529016965024971 0.011937402048566081 0 0 0 -0.0044802661604755878 -0.091745793376003235 0.00019677978022102451 0 0.00019677978022102451 -0.0091023259974729702 0 0 0 -0.025212029843369059 -0.12607817270001132 -0.0089020977373890642 0 -0.0089020977373890642 -0.014471815448606203 0 0 0 -0.035137497037154387 -0.11591885887752908 -0.014022142186608421 0 -0.014022142186608421 -0.0011591269181671707 0 0 0 -0.029269496448924084 -0.086773662235930291 0.0036701676149321107 0 0.0036701676149321107 -0.0014175568226509963 0 0 0 -0.022047804764645323 -0.04582187052521404 -0.0039534904420433503 0 -0.0039534904420433503 0.021550597964811739 0 0 0 -0.006067818140100564 -0.070668862251499709 0.031574561069894758 0 0.031574561069894758 -0.0062114337452827684 0 0 0 -0.019220073999195453 -0.019030466234858379 -0.026300596460081871 0 -0.026300596460081871 0.026793197184213913 0 0 0 0.001940682737338606 -0.021324262991756382 -0.027380813304288709 0 -0.027380813304288709 0.020746174154862462 0 0 0 -0.00014452220922356318 -0.053242121723280258 -0.032191707051576035 0 -0.032191707051576035 0.0084501808068496997 0 0 0 -0.011197985229107546 -0.030861740743170822 -0.0068461090776715805 0 -0.0068461090776715805 -0.016864900253082515 0 0 0 -0.01193166024906344 -0.023685573845316332 -0.015654032929156458 0 -0.015654032929156458 -0.0044281693341170492 0 0 0 -0.0070284357948583454 -0.039260301382516342 -0.0087084604396854524 0 -0.0087084604396854524 0.015031641197070428 0 0 0 -0.0060571650463614943 -0.077007861590893595 0.0054525248684874758 0 0.0054525248684874758 -0.0050982901573006015 0 0 0 -0.020526537937048554 -0.091243527799321933 0.060068170540517718 0 0.060068170540517718 0.016791439956796994 0 0 0 -0.018613021960631471 -0.060579024151675986 -0.027999889065606243 0 -0.027999889065606243 0.010325863772801869 0 0 0 -0.012563290094718571 -0.020066070502348099 0.041382360640003224 0 0.041382360640003224 0.020906405925052107 0 0 0 0.00021008385567600207 -0.036896485071083986 -0.024258725528027547 0 -0.024258725528027547 -0.0038920862090411762 0 0 0 -0.010197142820031237 -0.016390254665528348 0.057873633617329778 0 0.057873633617329778 0.0066111418479564144 0 0 0 -0.0024447782043929278 -0.071363856299823683 0.0043046847042317316 0 0.0043046847042317316 0.0008028949763411522 0 0 0 -0.017640240330870641 -0.042111365441044726 -0.0012858607540415963 0 -0.0012858607540415963 0.010344179689272219 0 0 0 -0.0079417964379431306 -0.052221219372004302 -0.029014385509611218 0 -0.029014385509611218 0.0018092668798546097 0 0 0 -0.012602988123037506 -0.0063351082229365779 0.009521905963362165 0 0.009521905963362165 0.036553794213597376 0 0 0 0.0075546714976652135 -0.0098052301436222788 -0.013146017381041986 0 -0.013146017381041986 0.073891034399880429 0 0 0 0.016021451064064551 -0.039909469475828178 0.00068919952442261616 0 0.00068919952442261616 0.0012140801354311092 0 0 0 -0.0096738473350992619 0.0019686498392577079 1.1760848410702351e-05 0 1.1760848410702351e-05 0.0028480897006861738 0 0 0 0.0012041848849859704 -0.0058448932440064993 0.0015586234909701346 0 0.0015586234909701346 0.00053965318038073917 0 0 0 -0.00132631001590644 -0.00063560328159972812 -0.015365311226349987 0 -0.015365311226349987 0.032021654050373272 0 0 0 0.0078465126921936079 -0.0012862168208931379 -0.0073680162498914736 0 -0.0073680162498914736 0.033187677922446923 0 0 0 0.0079753652753884463 -0.0022368212723060665 0.0084945115841530416 0 0.0084945115841530416 0.069610325874332801 0 0 0 0.016843376150506462 0.0013770376793142969 -0.00015729902984351618 0 -0.00015729902984351618 0.0015930438633819932 0 0 0 0.00074252038567390599 0.0020580705519965825 0.016631588430217281 0 0.016631588430217281 0.069621377982700849 0 0 0 0.017919862133674691 -0.0047041044088365069 -0.0015634052819204491 0 -0.0015634052819204491 -0.00016866624450129208 0 0 0 -0.0012181926633345608 -0.030290155389765705 -0.009364125610571955 0 -0.009364125610571955 -0.019822370412055701 0 0 0 -0.012528131450455338 -0.032821144358912313 -0.01050963987265517 0 -0.01050963987265517 0.011938207676158052 0 0 0 -0.0052207341706886345 -0.04040798105797927 -0.012544133564162965 0 -0.012544133564162965 0.0088104573070766357 0 0 0 -0.0078993809377255753 -0.018314094340795787 -0.0015834046198099916 0 -0.0015834046198099916 -0.019921547405501519 0 0 0 -0.0095589104365743117 -0.018401652702363269 0.0011693149656042401 0 0.0011693149656042401 -0.014547165179494725 0 0 0 -0.0082372044704644987 -0.030744129483652717 0.027599875774013211 0 0.027599875774013211 0.10248643525750811 0 0 0 0.017935576443463851 -0.053040355142844629 -0.01728012844024765 0 -0.01728012844024765 0.012322825523071235 0 0 0 -0.010179382404943337 -0.055582229340998497 -0.026761333509101023 0 -0.026761333509101023 0.0063944418371915668 0 0 0 -0.012296946875951731 -0.060315893679021557 0.0017263571993614731 0 0.0017263571993614731 0.0040072542000706979 0 0 0 -0.014077159869737725 -0.10958068916432873 0.043143848782607241 0 0.043143848782607241 0.0036500679586053408 0 0 0 -0.026482655301430902 -0.088960378602413681 0.059855844972182326 0 0.059855844972182326 0.039663590744986266 0 0 0 -0.012324196964356715 -0.024590401676245627 0.026194652945138272 0 0.026194652945138272 0.066314554272160098 0 0 0 0.010431038148978611 -0.0253558343579669 -0.010345173821227828 0 -0.010345173821227828 0.02172693037174267 0 0 0 -0.0009072259965561269 -0.03178108396094298 -0.0099850024563569728 0 -0.0099850024563569728 0.021935727196455534 0 0 0 -0.0024613391911219029 0.0060760593458286383 0.036329484005044141 0 0.036329484005044141 0.070646125085164935 0 0 0 0.019180546107748386 -0.062151615176512492 -0.02753074154842583 0 -0.02753074154842583 0.018489808802167884 0 0 0 -0.010915451593586117 -0.073103661387786331 -0.019359377766643537 0 -0.019359377766643537 0.0014888659520446712 0 0 0 -0.017903698858935377 -0.020996073554864159 0.02327168997652215 0 0.02327168997652215 0.050308272851968705 0 0 0 0.0073280498242761505 -0.0080930890215575885 0.028676100033104335 0 0.028676100033104335 0.040343744292006642 0 0 0 0.0080626638176122516 -0.041933190425927525 -0.015803270222384314 0 -0.015803270222384314 0.02260043783040433 0 0 0 -0.0048331881488806738 -0.040616574093869644 -0.0053792889860651248 0 -0.0053792889860651248 0.011742636572329435 0 0 0 -0.007218484380385054 -0.040270790966069364 -0.004222299907394686 0 -0.004222299907394686 0.02101585336579205 0 0 0 -0.004813734400069325 -0.041168594462720622 -0.0026152557078896708 0 -0.0026152557078896708 0.035170288605380781 0 0 0 -0.0014995764643349549 0.00088778846081605245 0.020290958296141692 0 0.020290958296141692 0.11201291788147127 0 0 0 0.028225176585572109 -0.030330963540583178 -0.0063324626234908532 0 -0.0063324626234908532 0.00027050163239827896 0 0 0 -0.007515115477046197 -0.071414714195163737 0.0069243274662253024 0 0.0069243274662253024 0.00074543973875129677 0 0 0 -0.017667318614103096 -0.029006559611406232 0.0050278511935341139 0 0.0050278511935341139 -0.011166605278483952 0 0 0 -0.010043291222472547 0.032276154656600498 0.019325227209940898 0 0.019325227209940898 0.063188435507265828 0 0 0 0.023866147540966609 -0.025024852578189871 -0.0061381624628286113 0 -0.0061381624628286113 -0.018160987356993674 0 0 0 -0.010796459983795914 -0.062518209998903645 -0.026687550150546118 0 -0.026687550150546118 -0.00073206632190758736 0 0 0 -0.015812569080202815 -0.088139708095944569 -0.021260246959471894 0 -0.021260246959471894 0.0029085199992455735 0 0 0 -0.021307797024174763 -0.035275047618434113 -0.011213303274475117 0 -0.011213303274475117 0.043176348956108224 0 0 0 0.0019753253344184929 
</DataArray>
<DataArray type="Float64" Name="cross_section_updated" format="ascii">
0.001009275577896606 0.0010229257741274419 0.0010312576414710538 0.001039112402933521 0.0010472891700821127 0.0010562182896443485 0.0010659977499050889 0.0010759862284735831 0.0010860590561664154 0.0010950343635795312 0.0020330990028076695 0.002085491367749685 0.0021210575414617409 0.0021530636729473018 0.0021844190557889914 0.0022155239327364142 0.0022467235371776521 0.0022771402202639126 0.0023067163437873327 0.0023343053725317893 1 1 1 1 1 1 1 1 1 1 1 1 1 1 1 1 1 1 1 1 1 1 1 1 1 1 1 1 1 1 1 1 1 1 1 1 1 1 1 1 1 1 1 1 1 1 1 1 1 1 1 1 1 1 1 1 1 1 1 1 1 1 1 1 1 1 1 1 1 1 1 1 1 1 1 1 1 1 1 1 1 1 1 1 1 1 1 1 1 1 1 1 1 1 1 1 1 1 1 1 1 1 1 1 1 1 1 1 1 1 1 1 1 1 1 1 1 1 1 1 1 1 1 1 1 1 1 1 1 1 1 1 1 1 1 1 1 1 1 1 1 1 1 1 1 1 1 1 1 1 1 1 1 1 1 1 1 1 1 1 1 1 1 1 1 1 1 1 1 1 1 1 1 1 1 1 1 1 1 1 1 1 1 1 1 1 1 1 1 1 1 1 1 1 1 1 1 1 1 1 1 1 1 1 1 1 1 1 1 1 1 1 1 1 1 1 1 1 1 1 1 1 1 1 1 1 1 1 1 1 1 1 1 1 1 1 1 1 1 1 1 1 1 1 1 1 1 1 1 1 1 1 1 1 1 1 1 1 1 1 1 1 1 1 1 1 1 1 1 1 1 1 1 1 1 1 1 1 1 1 1 1 1 1 1 1 1 1 1 1 1 1 1 1 1 1 1 1 1 1 1 1 1 1 1 1 1 1 1 1 1 1 1 1 1 1 1 1 1 1 1 1 1 1 1 1 1 1 1 1 1 1 1 1 1 1 1 1 1 1 1 1 1 1 1 1 1 1 1 1 1 1 1 1 1 1 1 1 1 1 1 1 1 1 1 1 1 1 1 1 1 1 1 1 1 1 1 1 1 1 1 1 1 1 1 1 1 1 1 1 1 1 1 1 1 1 1 1 1 1 1 1 1 1 1 1 1 1 1 1 1 1 1 1 1 1 1 1 1 1 1 1 1 1 1 1 1 1 1 1 1 1 1 1 1 1 1 1 1 1 1 1 1 1 1 1 1 1 1 1 1 1 1 1 1 1 1 1 1 1 1 1 1 1 1 1 1 1 1 1 1 1 1 1 1 1 1 1 1 1 1 1 1 1 1 1 1 1 1 1 1 1 1 1 1 1 1 1 1 1 1 1 1 1 1 1 1 1 1 1 1 1 1 1 1 1 1 1 1 1 1 1 1 1 1 1 1 1 1 1 1 1 1 1 1 1 1 1 1 1 1 1 1 1 1 1 1 1 1 1 1 1 1 1 1 1 1 1 1 1 1 1 1 1 1 1 1 1 1 1 1 1 1 1 1 1 1 1 1 1 1 1 1 1 1 1 1 1 1 1 1 1 1 1 1 1 1 1 1 1 1 1 1 1 1 1 1 1 1 1 1 1 1 1 1 1 1 1 1 1 1 1 1 1 1 1 1 1 1 1 1 1 1 1 1 1 1 1 1 1 1 1 1 1 1 1 1 1 1 1 1 1 1 1 1 1 1 1 1 1 1 1 1 1 1 1 1 1 1 1 1 1 1 1 1 1 1 1 1 1 1 1 1 1 1 1 1 1 1 1 1 1 1 1 1 1 1 1 1 1 1 1 1 1 1 1 1 1 1 1 1 1 1 1 1 1 1 1 1 1 1 1 1 1 1 1 1 1 1 1 1 1 1 1 1 1 1 1 1 1 1 1 1 1 1 1 1 1 1 1 1 1 1 1 1 1 1 1 1 1 1 1 1 1 1 1 1 1 1 1 1 1 1 1 1 1 1 1 1 1 1 1 1 1 1 1 1 1 1 1 1 1 1 1 1 1 1 1 1 1 1 1 1 1 1 1 1 1 1 1 1 1 1 1 1 1 1 1 1 1 1 1 1 1 1 1 1 1 1 1 1 1 1 1 1 1 1 1 1 1 1 1 1 1 1 1 1 1 1 1 1 1 1 1 1 1 1 1 1 1 1 1 1 1 1 1 1 1 1 1 1 1 1 1 1 1 1 1 1 1 1 1 1 1 1 1 1 1 1 1 1 1 1 1 1 1 1 1 1 1 1 1 1 1 1 1 1 1 1 1 1 1 1 1 1 1 1 1 1 1 1 1 1 1 1 1 1 1 1 1 1 1 1 1 1 1 1 1 1 1 1 1 1 1 1 1 1 1 1 1 1 1 1 1 1 1 1 1 1 1 1 1 1 1 1 1 1 1 1 1 1 1 1 1 1 1 1 1 1 1 1 1 1 1 1 1 1 1 1 1 1 1 1 1 1 1 1 1 1 1 1 1 1 1 1 1 1 1 1 1 1 1 1 1 1 1 1 1 1 1 1 1 1 1 1 1 1 1 1 1 1 1 1 1 
</DataArray>
<DataArray type="Float64" Name="displacement_divergence" format="ascii">
0.0092463163172738991 0.022891188580605622 0.031218280666449737 0.039075855349161311 0.047256435847445585 0.056186621642517601 0.065964492390762977 0.075951730372018897 0.086036665626719119 0.094964262318579878 0.016627645933728719 0.042726809149879752 0.060504582461667532 0.076500168918799974 0.092171525431201773 0.10771767095108442 0.12331457301120266 0.13849508841586988 0.1533769830886928 0.16679721016713697 -1.4354525983122757e-05 -1.2021443037839893e-06 -1.7089039123702432e-05 -1.6969284709356347e-05 -8.3591778346977019e-05 -6.0691263068861839e-05 -8.9968564087886905e-05 -6.3243609883241244e-05 -7.381289391567357e-05 -0.00012661262317402509 -2.0844130053083939e-05 -2.1056264391674925e-05 -3.486721463667763e-05 -3.97361760633527e-05 -4.0631734954721639e-05 -2.2921238236543902e-05 0.00021504116288556844 -3.0650511394151973e-06 2.4171793999595154e-06 2.9911606443189589e-06 3.8169555659738064e-07 -7.5586069943310574e-06 -7.9869337602535544e-06 -3.2589340657769154e-05 0.00017174003881048231 -0.00013442651778148738 -7.4550124293578843e-05 -4.9103863468689853e-05 -2.8058619534954122e-05 -6.7078949814347613e-05 -2.6590905619086424e-06 -1.5648431370122941e-05 -1.9902834311325782e-05 -1.4129111276631016e-05 -2.6698195489376769e-05 -5.2987541934985439e-05 2.0518158724495741e-05 -6.6760358112927026e-05 0.00020103565157802484 5.6437398974264761e-06 2.3131296372444292e-05 2.0315165058878557e-05 3.6765324222019693e-05 -6.3398942942620787e-06 -3.2544446923988871e-05 -3.1813066181687973e-05 -4.3410294623729486e-06 -1.2534085726015451e-05 0.00022356745369492433 -6.9140219290017004e-06 2.0426071809424574e-05 -2.7298087926957526e-05 7.0186896222553644e-06 -2.1348526452426384e-05 -8.0567658860907594e-06 -6.9466708703568719e-05 -5.570487833426313e-06 5.3307307025705908e-05 3.4636361308768486e-05 -2.2339228124279575e-07 -1.8757759813105334e-05 6.6565907157406929e-05 -1.615653481886099e-05 -1.8875645896247848e-05 -2.0699980559269957e-05 -6.712490476986915e-05 -9.1267369956203265e-05 7.7564896681896598e-07 2.0661070595822209e-05 -7.1746019251338927e-05 -5.5943274149575189e-05 -2.733223395525671e-05 -6.1080023842486882e-05 -8.5944054081738154e-05 -2.563867672829989e-05 -1.9253964948526004e-05 7.6339099826961505e-05 -5.3261049263774243e-06 -2.7264858407025842e-05 -2.0629014034430256e-05 -3.8953096718017267e-05 -9.1367531496791546e-05 -6.8517936579128402e-05 -3.3298827127584203e-05 -5.7746642357701765e-06 -7.6609560789844735e-06 -1.5826154863455414e-05 -2.2706493963872663e-05 -4.7585885210887541e-05 -2.2689490896238371e-05 -1.9933334265085921e-05 -2.1587747992015276e-05 -2.3938603936974182e-05 -1.0370059362570683e-05 -4.5513256170591043e-06 -1.7730714789786477e-05 1.8367196668268688e-05 7.4683435125755607e-05 -3.949987953501613e-07 -6.4269975220579249e-06 7.9374496634069917e-05 4.6768989205802906e-05 -2.6190141839628003e-05 -2.9662329904223556e-05 2.6544323819933848e-05 5.8381916437995514e-06 -1.0241433574477915e-05 -7.6266556425645974e-06 -1.3704255724521436e-05 1.3221236962591247e-05 -8.3696756503891939e-06 3.6221820433964165e-05 -6.6561357449217295e-05 -0.00010799084407153177 -6.8553464128648931e-06 9.2702544153374115e-05 -1.9687258821002665e-05 -1.7862810579455309e-05 6.301242980974666e-06 3.403396759993696e-06 1.5398768033546284e-05 9.2948444624447858e-08 1.2487761065292429e-05 -2.3681399874662847e-05 -2.2947910907406249e-05 -2.3128039042547491e-05 4.8581367334521973e-07 -9.7899526522800435e-05 -2.805068177392882e-05 -2.2327859144107357e-05 -2.5161512574773043e-05 -7.4458868668294534e-05 -5.6181058308237886e-05 -5.5831173666523112e-05 -9.0301077854885612e-05 -8.668663167857131e-05 -2.3538733547554205e-05 -5.8074803787797687e-05 2.7621535284751012e-05 1.2512062713977832e-06 -2.4721989906044026e-08 -2.4978463126217e-05 -6.7764876805519788e-06 -2.2739961486744531e-06 -1.4911845994472223e-05 -2.6651139511451693e-05 -4.0001657597274308e-05 -3.6427382960870937e-05 -7.7232223762944692e-06 -4.7206617854388144e-05 -4.0308404138706842e-05 -2.8044873983957567e-05 -2.4517957583922918e-05 -2.7460215354698427e-05 -2.7986342748579748e-05 -3.2139080569285549e-05 -7.2641944524069253e-06 -2.2509786402234765e-05 -3.3097263827973897e-05 1.3847018312733926e-05 -2.7643492411881573e-05 -2.3276650472113766e-05 -9.1325636388313829e-05 -6.8489503476248134e-05 8.0912804559598334e-05 -2.1726578582785616e-05 2.3368121567015092e-06 -2.8649098804484942e-05 -6.2909058428714019e-05 -9.9649081718222542e-05 -3.0038439283048887e-05 -5.7198968597424858e-05 -7.272937291432163e-05 -5.867211456758007e-05 -3.9107325852935167e-05 -3.9684295060492479e-05 -4.5565775564178487e-05 -2.5400090487718088e-05 6.8003032589435131e-06 -2.0764476645591858e-05 -2.7717836301262703e-05 -3.1254590918723549e-05 -4.8551655986013586e-05 -4.1915780833206369e-05 -2.6619069358137557e-05 -2.4574761041609369e-05 -2.6676906311139635e-05 2.3463942716872707e-05 6.0813663411829e-05 -8.7085571984410042e-06 -2.2069374397218613e-05 -2.73637887237465e-05 -3.4184794487370461e-05 1.1732324204691497e-05 -2.3439682268673622e-05 -3.0446765137191089e-05 -2.3816432440329819e-05 -6.5182157369179008e-05 -9.8177520405197131e-05 -2.0095644207630142e-05 -4.6475084263685362e-05 -5.5403629553417723e-05 -0.00011480219931555495 -6.6466921382981844e-05 7.6058947609558011e-05 0.00022646787526816738 -8.0914300945239613e-06 -2.1060682640246676e-05 1.3233705635206001e-05 -1.9384157036221215e-05 -2.6694363247270966e-05 -3.7835518992383093e-05 -1.1092192655719809e-05 -0.00010078570910876305 -2.3018515852015267e-05 -5.9813752881676847e-06 -1.2380669326149811e-05 -2.9811435028542787e-05 -1.4122890357410593e-05 -6.3281244168429351e-06 -5.5674343846555404e-05 -2.4515508693558541e-05 -8.4415499631339174e-05 -1.8360758443616322e-05 -2.0736555548349443e-05 -2.3947051523821525e-05 -1.8994132182840236e-05 -2.4516277531993339e-05 6.9594816399152625e-05 -2.3187930103292636e-05 -2.8496368225253257e-05 -1.9406943539409666e-05 4.7942035690692571e-05 -6.6402733130071874e-05 -2.4133199660309462e-05 -9.8621688350947209e-05 -6.3890246999340143e-05 -5.9478162000364473e-05 -2.436324035584485e-05 -6.1763677311330094e-06 -2.3723058876490288e-06 1.2322853750310785e-06 -2.2116226550612318e-05 -2.0864754564644053e-05 -1.1091390108132395e-05 -2.4663624990641567e-05 -2.8947239794348513e-06 2.2062442132774612e-06 -9.6039639285745021e-06 -9.15793039651773e-06 -2.3443435100806674e-06 -5.5206210525011404e-05 -4.0525227237188155e-05 -4.6963751792206197e-05 -7.1209018101893494e-05 -5.6611333527460455e-05 -3.2111801274960274e-05 7.0021574580447646e-05 -6.9717709914296982e-05 -5.4239320232167295e-05 -1.50343379230324e-05 -4.0118239233358625e-05 -4.7375597176837995e-05 -7.969703438893516e-05 -8.2509780959035375e-05 1.1237083554172141e-05 -7.754829793577174e-06 1.0252103964433539e-06 -8.8339745291472413e-06 -3.3439297502902213e-05 3.9970222715824744e-05 7.3315848313454705e-05 -1.3370651441098628e-05 -4.7364337614225248e-05 -1.6304673393922301e-05 -7.5641062847260588e-05 -1.5938544027506497e-05 -1.8921272253390924e-05 -1.8847082331459471e-05 -3.6240747157837565e-05 -3.5657590884300067e-05 -4.0294622295559406e-05 -4.1517717021388426e-05 -5.0069399915960453e-05 -7.2656035198971874e-05 -6.9625402753930682e-05 -5.4735462025771114e-05 -4.3516300306106007e-05 -5.522920296361256e-05 -3.4663259019422999e-05 2.3337678071483738e-05 -1.9016260731585521e-05 -1.0802740317773091e-05 -9.4149903337491583e-07 -4.4153917571580039e-05 -5.4226326093010415e-05 -1.8126884920854542e-05 1.0146608897340257e-06 -5.2098633206955607e-05 1.9604565937122683e-05 -2.599608033304569e-05 -2.5232387667300095e-06 -8.4779900331747953e-05 -5.8322502101345637e-05 -3.3625716169173597e-06 -2.3367935307592225e-05 -2.5812426167488129e-05 -8.536379258401604e-05 -5.9485387597020686e-05 9.1200989250721176e-06 -1.7270032313474164e-05 -1.723989880120496e-05 -4.6934961133469804e-05 -3.7611519138441521e-05 -7.0106535897675014e-06 -4.3841459469528541e-06 -4.2601374991449236e-05 -3.9687926354881036e-05 -3.8920693136555585e-05 -3.7934412639586115e-05 -2.1647445195799027e-05 6.1184267271063033e-06 -9.8976499816526514e-06 -9.5344368235420265e-06 -2.5971421288088249e-05 -7.3916333042096764e-06 -7.0748152025088706e-06 3.664323765318345e-06 -3.59629806252512e-05 -2.0456679382762797e-05 -7.0682943326999575e-05 -5.4901040133405085e-05 -7.520273946001201e-06 4.2258731188351498e-05 7.5094297036273287e-05 -8.2406524445718146e-06 -3.6051012609260394e-06 -2.1268176984553491e-05 -3.0741895268044956e-05 -2.6163131259910385e-05 -1.8562324807741429e-05 4.2846663005079199e-06 4.3791774625603734e-06 2.2498454077345955e-05 -7.2137035498007207e-06 -1.7021122606997239e-05 -2.1646760617512594e-05 -1.7113263658128753e-05 -2.346900666725521e-06 -1.4183606724655403e-05 -6.1081474310034181e-05 -4.9733935681952959e-05 1.4268001635074244e-05 -8.5911061307609378e-05 -6.3590744790801426e-05 -2.5083147132550464e-05 2.511282099021666e-05 1.6340816905373095e-05 -3.8101817011693346e-06 -2.5247276022021155e-05 -1.4145725142407107e-05 -2.4049689369612338e-05 -5.3074223773349853e-05 -3.9182632191295968e-05 2.0212727493285261e-05 1.0415412174326924e-05 2.6321126717012149e-05 -1.0277954751803425e-05 -8.6543021745665667e-06 3.3627319614015818e-05 2.0413489626504647e-05 2.2120461974326454e-05 -1.4530847030505643e-05 2.8391423842373802e-06 -1.5678729650756381e-05 -2.8793380586054039e-05 2.3146135642497302e-06 -3.0386322060080627e-05 -5.8284795300256667e-05 -4.2761213966070901e-05 -1.162387513331349e-05 1.7980596070615203e-05 -9.8071852614387434e-05 -2.4594869073635216e-05 -1.5423635052532985e-05 -2.4018113038201249e-05 -3.1064235419210953e-05 -3.303275951718415e-05 -2.2695491395411733e-05 -1.6247491118044594e-05 -1.9633492050013764e-05 -1.2247720279549932e-06 -6.0342252422647494e-05 6.1654525686469252e-05 -1.7507276661355331e-05 -1.9022520146288337e-05 -1.7252810138129623e-05 -1.4559426838329365e-05 5.1422507113328512e-06 -7.9601924235511988e-06 -1.317174507269041e-05 -1.8333087109686376e-05 -5.0845155000709064e-05 -1.9590397478636668e-05 -7.9438097900750041e-06 -5.7194664490329455e-05 6.46505140612503e-05 -1.3577058067888899e-05 -1.2297445915964832e-05 -1.8595753018679225e-05 -2.2977001760507071e-05 1.537270726151868e-05 -2.1482939169633849e-05 -2.9771011044369192e-05 -1.8052873812221215e-05 -4.8096258986905457e-05 -3.6357210585414548e-05 -2.0605330185351442e-05 -5.1630210803078978e-05 -7.5686095232264071e-05 9.0062031832679416e-06 2.2633219747058425e-05 -6.0549740544846601e-07 -2.7380304634405672e-05 7.5818882644813099e-05 -2.7576273157437867e-05 -6.6447711746929104e-06 3.5063954855399718e-05 -1.9540518315636995e-05 -1.072499885123061e-05 -1.1792861867799403e-05 -2.5606236441514247e-05 -4.6866361018765509e-06 2.300157947510888e-05 -1.0696305768521973e-05 -7.8569820255793151e-05 -0.00013891523652877509 4.3233696529080016e-05 -4.2054235014479924e-05 4.2964713206890976e-05 5.1364670525026485e-05 9.1466176874977672e-05 8.4506364464679391e-05 -1.1915189049322783e-05 -2.163857131585881e-06 5.2383142387260107e-05 2.0659612454586198e-05 -1.268745032765022e-05 2.1308875832489263e-05 -7.4668167976913585e-06 -6.2833925378088379e-06 5.4113124291002568e-06 -2.0271165897523068e-05 2.1482322400239828e-05 -4.1443403952663152e-06 1.240650990181283e-05 -5.2577447634113636e-06 6.8395317162173001e-06 6.5830544173305604e-06 -2.4109791490246738e-05 -2.2990956030160604e-05 -2.4815483349579184e-05 -4.20087159286374e-06 -4.6709276233847295e-05 3.0701363214814795e-05 5.216904394783129e-07 3.8098742889937446e-06 -2.6957493315846594e-05 -2.9668281429029442e-05 -0.00015166694121962162 -8.1576653783788046e-05 -2.9234533583491612e-05 -3.4142825247412581e-05 6.9315395004735975e-07 -1.6403333310158565e-07 -7.1230201898372181e-06 -8.1234208685703445e-05 -5.8520269874648367e-05 4.4866106531329941e-05 -6.6207094065549564e-05 -5.132889955583931e-05 -2.4646144173212669e-05 6.0874494200829606e-05 -7.0042572479303713e-06 -9.9260906642453166e-06 -5.1850157360118615e-05 -4.7697167455043302e-05 -7.1744444886095041e-05 -0.00011638291021108804 -2.7135313145782217e-05 2.2127914675075739e-05 -3.829787005904158e-06 1.3985266827399852e-06 -2.6607776776148725e-06 2.0387678029263722e-05 1.9371143936317626e-05 -2.2591747043789107e-05 -1.9177987856265758e-05 -1.4338736164750982e-06 5.298226544197961e-05 -6.7995954694314328e-05 -0.00010553811184913787 -1.1388773926125931e-05 3.7714932486951369e-05 -1.3004845982147331e-05 -6.8503459963154619e-05 -5.2524968334110122e-05 -2.7415050225303603e-05 -1.0186887429691134e-06 3.0555858657306751e-06 -2.7293869087655809e-05 -3.6934753423981375e-05 1.8423347164645389e-05 1.8089209074921759e-05 -2.5365137104068182e-06 -8.8958095139569818e-06 -9.139198803842551e-06 -1.6140254217053378e-06 7.2750525716636788e-05 6.6186640108835057e-07 3.6540319470941183e-05 9.5314626536390466e-07 -8.1597479905695693e-06 -1.5119595939868961e-05 -8.9743022201619948e-06 -9.0904278520833698e-05 -0.00010456305985646878 -2.2404522905193982e-05 -2.6379659516266672e-05 2.2779269591694055e-05 -5.0432777441722037e-05 -4.5453179837512347e-05 -5.3709336854556771e-05 -6.5845374395489604e-05 -3.7628070593702162e-05 -2.8879723352586697e-05 -3.5203635867707475e-05 -3.4409829411842594e-05 -3.2446852843447292e-05 -3.6563587311900023e-05 -1.104784345183716e-05 -1.9044037019847219e-05 -4.051435328132196e-05 -4.1410363686769575e-05 -1.6410753064653049e-05 -4.5163470599387016e-05 -5.2719757114673725e-05 7.4042222841856045e-06 -1.8146464015650588e-05 -6.5001798988064996e-05 -5.4583373821250954e-05 3.2441019697722481e-05 -2.2620578366709882e-05 -3.0599353926165403e-05 1.395242536774712e-05 -8.5367978215760169e-06 -1.1606870557546187e-05 -9.4249898217409954e-05 -6.7723559281520945e-05 1.3535511823528043e-05 -1.0812113297904334e-05 -2.1051104949953644e-05 -4.9772881904429269e-05 -5.5201989817052922e-05 -1.3341995735860349e-05 -2.0726149727232529e-05 -2.2573409430907271e-05 -6.7318204891601296e-06 -2.3002915432963883e-05 8.365951858935804e-05 -3.0079633481058538e-05 -3.3297414969720752e-05 2.2137350835616399e-05 2.0420469827352964e-05 -5.1895779576672507e-05 -9.8868472936788692e-06 -6.6937109487402502e-05 -0.00011159962173182524 -6.5909795235440604e-05 -0.00011210996694438285 -6.1703898972960487e-05 -8.2525305299701535e-05 -6.8099834062377716e-06 2.4345632306565015e-06 2.5405308118544505e-05 6.3022180902143831e-05 8.0677260102533831e-06 4.9668684355226242e-05 1.3675557472462717e-05 -2.2496274111414796e-05 6.5808614496311465e-06 -6.8759419267425679e-06 2.6709444369612748e-06 -7.7219437146358941e-05 -4.0110846989371672e-06 9.1919228068276706e-05 7.9488353806662091e-05 2.4492400869321226e-05 -0.00012322697628608408 -7.1277049404830476e-05 -2.5894259517640389e-06 -5.1675104487314358e-05 -3.2822059503946534e-05 -6.2337461365648793e-06 1.4360318611889344e-07 2.1008141362897719e-05 -1.2811700459328286e-05 -4.0005796008075651e-05 -4.4194742864372607e-05 -1.4014942679540037e-05 -1.406384731600244e-05 -1.8218958855885039e-05 -1.8404330815955435e-05 -3.3174891438251467e-05 -2.535415849556736e-05 -4.763159470650044e-05 -5.7955557654342974e-05 -5.5906090572383892e-05 -9.7070677876548396e-05 -5.0287123805095883e-05 -1.4473220735186287e-05 -1.1427420634052164e-05 -7.9204002806116677e-05 -0.00010519879419786426 -2.4266989416730852e-05 1.8277909138285299e-05 -7.2089650979203032e-05 -0.00012976060289724963 -3.6669648641647146e-05 -6.923470890213786e-05 -5.1668765951621608e-05 0.00010093455621769452 -9.6417190830877097e-05 -6.2542580234683365e-05 -2.8499452554851964e-05 -2.8431820696571452e-05 5.1801555760090672e-07 -1.89913054472203e-05 -8.9181278123079565e-06 8.942810874589739e-05 -4.8958151931727725e-05 -2.2023885699597847e-05 6.8711181076432006e-05 -4.5682548041272859e-05 -0.00015544491038022555 -8.4398489988476565e-05 3.4904517752698452e-06 -6.6310359177892392e-05 -7.6354316746577596e-05 3.3950896461952995e-05 -3.0250874643168117e-05 -1.8872291388994847e-05 6.055943876948338e-05 -9.7338590117918705e-06 -1.2853905664736789e-05 7.1278038520477529e-06 -2.0243668542507082e-05 -2.7291129333958941e-05 2.6891924008142377e-05 -3.3420705357157904e-05 3.2716433991977951e-05 -5.913546859272629e-05 -2.9795776082972838e-05 -5.1322826448567629e-05 -4.587597245330529e-05 -6.4512465858143384e-05 -5.6849371801962899e-05 -5.2218057861202409e-05 -4.6426930462486497e-05 -5.0851490006594001e-05 -4.3241956196627691e-05 -4.3215083326196717e-05 -1.2498613589644915e-05 1.2469762702013788e-05 -1.6755724926214392e-05 -8.0613056163114085e-06 -1.6474734936461832e-05 1.042830907857983e-05 -5.0035245845006819e-06 -8.5435774833617865e-05 -0.0001594462053351709 2.5269593494735417e-06 1.9334011464509113e-05 -4.0715305745175304e-05 -2.5153151128904155e-05 -3.4233233307388046e-05 -2.9032540441736992e-05 4.4907161633750257e-05 -6.313840751899166e-05 -5.7555137666058092e-05 -7.7843919703449987e-05 -9.2413936324413454e-05 -7.1892307175474993e-05 4.8983042041293029e-05 1.9509022062114199e-05 -1.7588566271960483e-05 -3.7623905276964654e-05 -7.2891030977516468e-06 -5.2154279654885758e-05 1.7849871319907404e-05 -2.7953332075617684e-05 -2.6985432297142704e-05 6.5901591824892009e-05 -0.00012811013212563711 -2.2183371359195464e-05 -5.0070532690210085e-05 -5.9000072290443255e-05 -8.1623684582665601e-06 -6.5036483072836377e-05 -0.00010743446442586177 3.6214977990695063e-05 -2.8682413239798643e-05 1.9732635561196452e-05 -3.432759265882795e-06 -7.6442464617573172e-06 -1.636688049187706e-05 -2.5495625163401118e-05 -2.9646952416083527e-05 5.1285526326618229e-05 4.3956905648523186e-05 -2.4164224052076067e-05 -2.1061471175602827e-05 8.9853825510849764e-06 2.746284684399837e-06 -9.1423766064883602e-07 2.3528959037926855e-05 -2.2907741352404893e-05 3.1842459883374245e-05 6.1834900263744226e-06 -5.0399511999928148e-05 -5.7363692073610388e-05 -9.597639829100283e-05 1.1625142515217927e-05 1.9395887878573818e-05 -2.1361346799489338e-05 -2.5845298145783893e-05 -0.00010296447023872612 -6.4292613174369027e-05 -5.8853025032242447e-05 3.9424723611436972e-05 -1.9285445339750932e-05 -2.6751921195442761e-05 -1.6072514921756131e-05 -3.4745781498345943e-05 -3.9925443794247128e-05 -3.7140011921227135e-06 7.9225438915780661e-06 -5.2093267666062997e-05 -5.6561216399773483e-05 -9.2031936034218898e-05 -1.8801105914165498e-05 -2.3614454415010972e-05 -5.1064789525949899e-05 -4.5194566322771889e-05 -1.5236331887796083e-05 -6.2787355538954852e-05 -7.4250622619257762e-05 -1.3291596204188319e-05 -3.5677207191421156e-05 -2.5108944896323908e-05 5.9205268225183817e-05 7.8641174775296782e-05 -7.5659366346798372e-05 6.7137851879721269e-05 5.1608231951084721e-05 -3.8149284653194316e-05 -2.9303192071164211e-05 -7.3257279802831695e-05 -3.6518075552803195e-07 5.7511613003386684e-05 -2.5572102509391294e-05 -6.6516172594957245e-05 -0.0001131565033543068 -3.4140981028733287e-05 5.5902631020399163e-06 -1.262570756563905e-05 1.3553434553269505e-05 -7.0982950063183228e-05 -5.7371044477264364e-05 -7.8572922801072704e-05 9.9532624737052504e-06 -4.4389049164306643e-05 3.224022445502808e-05 -2.1671324880021126e-05 -1.2195670711896993e-05 -6.8357817168433814e-05 -0.00011678788420612166 -4.6662458725002233e-05 -7.038532561955157e-06 1.6160325503769535e-05 -3.3529948547212426e-05 -2.4755696146089995e-05 -3.7877656802919496e-05 -4.0508986932167541e-05 -2.4559304750546582e-05 -2.6629438431218724e-05 -6.9523195169364168e-05 -0.00012472625374554614 -3.3965720068639837e-05 5.9829473221070578e-05 4.0380136907510519e-05 -2.5038976342359621e-05 6.9220978661741969e-05 -2.202669432013651e-06 -2.278552790575117e-05 5.0957933531176319e-05 8.8574343013287217e-05 -6.5303979706084333e-05 -4.3422994358234578e-05 -1.7912444783460202e-05 -5.8507318550746722e-05 6.7317833635380459e-06 -2.2624287119169442e-05 -2.8547296935353607e-05 5.518680914896705e-05 -3.7980082496518465e-05 -1.720662521844399e-05 -1.1696158580024401e-05 1.7703349452260738e-05 4.7591599315212243e-05 8.5442304726301456e-05 3.9607415826242731e-05 1.0504193248143893e-05 -1.1473613128294192e-05 2.5408458370450091e-05 -3.2371326772461255e-05 -4.9988342019536739e-05 -4.2134173527286439e-05 -4.6511952219297718e-05 1.1474533805320725e-06 1.7848907493425888e-05 -1.2773078678322036e-05 -1.637887127303294e-05 -2.5894381960426707e-05 -1.7113587366232716e-05 -2.4733419463010152e-05 -1.432946589879306e-05 -1.2949560258483704e-05 -1.6645419098440631e-05 0.00011081632144110615 -2.4376497914455009e-05 -3.1090078350964282e-05 9.8842300796453744e-07 8.8696632920160813e-05 8.7082098916043898e-05 4.5382636602096186e-05 1.6107209200241779e-06 7.5628934452318139e-07 4.8698393349656463e-05 1.292138167230221e-06 -2.5632425268903932e-05 -2.6456799876734596e-05 -3.8079465671229143e-05 -2.8001966918301006e-05 -3.1123893000608505e-05 -2.1336416627176606e-05 -1.2260339423158465e-05 3.413476481529845e-05 6.4317807622078359e-05 -2.5109177789137951e-07 -3.4185283225835362e-05 8.463285103078302e-06 3.7263134409229405e-05 -1.4862941710028406e-05 -1.516986878563645e-05 -7.2065926091805302e-06 -2.5453080109626332e-05 -6.4884813463930518e-06 2.8023403158390311e-06 -3.2640720672852679e-05 -6.0075664339381233e-06 1.9686343123487455e-05 -2.330162356612537e-05 4.1039446951894641e-05 1.9383594867463327e-05 -1.1577848954276264e-05 -4.9269193202294934e-05 -4.1406505126642272e-06 1.515153417810006e-06 0.00012894628698186303 0.00011215049001145409 5.6306048936917777e-05 1.2423165960768307e-05 -3.5238104685845865e-05 -3.4414126352332893e-05 -6.9431974936636542e-05 -5.3916831206909519e-05 -1.6967389512107361e-05 -6.9109185485927838e-05 -7.2547489778394337e-05 -9.2205123212306422e-05 -9.804876543788184e-05 -1.9807579009786672e-05 -2.1720848875957342e-05 3.1158076793202103e-05 2.8748502491171384e-05 3.6705953798665118e-05 -8.732725310150926e-07 2.5961527016055969e-06 1.6375808762378505e-05 3.541492077048969e-05 8.9168549859355409e-07 -6.8910113974614241e-06 -3.073049457705322e-06 -8.5768316463447457e-05 -0.00011559539852674982 -0.00011225229563558686 -8.425771387744616e-05 -1.1825928327059351e-05 -2.9469862536666994e-05 -2.0734964268526851e-05 -2.4819619984863016e-05 -2.5252249861262639e-05 -2.2544357123777209e-05 -2.2155251946779839e-05 5.0129693237573758e-05 0.00024212011628189602 -3.238236030614751e-05 1.4351051099115619e-05 -4.095449971570225e-06 -1.529284648882599e-05 2.3499833704995407e-05 -1.9219789170286418e-05 4.4667804568182502e-05 -2.7290716917338555e-07 -2.5824511664186527e-05 1.8146597148753323e-06 3.9748288257904565e-06 -2.1823185345854466e-05 2.9339637425190943e-05 -2.5978378170099295e-05 -3.1694392842513075e-05 -3.8025499944671107e-05 -3.5310335525784456e-05 -1.1950314481673574e-05 -7.5647385298471381e-06 -2.8804358008213573e-05 -2.1522903503731932e-05 -2.3891606652666326e-05 -1.9832775340484208e-05 -1.661230877206374e-06 8.1763178009227147e-06 -1.3174749120348998e-05 7.2839813876664168e-05 2.4581040447026019e-05 -3.1476864598809114e-06 1.0599260714908455e-05 -3.1745625675302057e-06 -3.3127894845551807e-05 -8.7367069757805088e-06 -4.5067050382715124e-06 -5.8562011322607009e-07 1.6922782914029558e-05 7.3733847020564236e-07 1.8466212223034253e-06 3.6094057733427817e-06 -3.1536812269689638e-05 1.4136441189798035e-05 5.4222608464250403e-05 9.7625632045602218e-05 -2.0982885868745113e-05 -4.6750137354348298e-05 -5.3612603681545048e-05 -2.6456841122759343e-05 -1.6033761870348033e-05 -2.5303747610322378e-05 -1.1302274253044402e-05 -3.5428053144799868e-05 -6.7451861929866512e-06 -1.1200665401188848e-05 -6.3030074608422669e-05 -8.7843742592885938e-05 -7.3173741122310141e-05 -5.5119511911613304e-05 -1.5169545350251431e-05 -4.8050184997988285e-05 4.8517068433466017e-06 -3.6130552305861305e-07 -2.7994963072769093e-05 -2.9829150622658526e-05 -1.7571089487145855e-05 -1.5142912615903744e-05 -5.1316344842621385e-05 -4.6532554901578633e-05 -3.1408225236796358e-05 5.2520963919003988e-07 -2.549285705007794e-05 -6.1119455109820593e-06 -4.4100600827176627e-05 -1.9854491094857844e-05 -3.150747030759393e-05 1.8886678744163218e-05 4.0053627660161222e-05 -2.4184618337748209e-05 3.0104622124656893e-06 -3.3157750397670022e-06 1.9616281730484072e-05 1.9938413188471445e-05 4.2108440376266605e-05 1.856300964185164e-06 4.4799655334186103e-05 -3.0454816583361764e-06 -3.1320328626138175e-05 -1.3051835426721543e-05 -1.974845234431412e-05 -2.3897276091435933e-05 -2.059301117616119e-05 4.4838941108659562e-05 -2.5448456012358372e-05 -3.0742367189879249e-05 -3.5192899674344326e-05 -6.6206638253577671e-05 -3.0810492410892048e-05 2.6077595372446495e-05 -2.2680649913902392e-06 -6.1533479778047269e-06 4.7951365269370972e-05 -2.7288628983965755e-05 -4.4759247147338466e-05 1.8320124560690349e-05 2.0156659544030689e-05 -1.2082970372201711e-05 -1.8046210950962552e-05 -1.2034336000173377e-05 -3.7489411608374141e-06 7.0562941463929094e-05 -1.8787788692615484e-05 -4.4168296535257749e-05 -2.5108228056181359e-05 5.9665368852416904e-05 -2.6991149959489677e-05 -3.9531422700507041e-05 -5.3269492560436795e-05 4.938313336046358e-06 
</DataArray>
</CellData>
</Piece>
</UnstructuredGrid>
</VTKFile>
