<?xml version="1.0"?>
<VTKFile type="UnstructuredGrid" version="0.1" byte_order="LittleEndian">
<UnstructuredGrid>
<Piece NumberOfPoints="3142" NumberOfCells="1054">
<Points>
<DataArray type="Float64" NumberOfComponents="3" format="ascii">
0.5 0.29999999999999999 0 0.54999999999999993 0.29999999999999999 0 0.54999999999999993 0.29999999999999999 0 0.59999999999999976 0.29999999999999999 0 0.59999999999999976 0.29999999999999999 0 0.6499999999999998 0.29999999999999999 0 0.6499999999999998 0.29999999999999999 0 0.69999999999999984 0.29999999999999999 0 0.69999999999999984 0.29999999999999999 0 0.74999999999999989 0.29999999999999999 0 0.74999999999999989 0.29999999999999999 0 0.79999999999999982 0.29999999999999999 0 0.79999999999999982 0.29999999999999999 0 0.84999999999999987 0.29999999999999999 0 0.84999999999999987 0.29999999999999999 0 0.89999999999999991 0.29999999999999999 0 0.89999999999999991 0.29999999999999999 0 0.94999999999999996 0.29999999999999999 0 0.94999999999999996 0.29999999999999999 0 1 0.29999999999999999 0 0.5 0.69999999999999996 0 0.54999999999999993 0.69999999999999996 0 0.54999999999999993 0.69999999999999996 0 0.59999999999999976 0.69999999999999996 0 0.59999999999999976 0.69999999999999996 0 0.6499999999999998 0.69999999999999996 0 0.6499999999999998 0.69999999999999996 0 0.69999999999999984 0.69999999999999996 0 0.69999999999999984 0.69999999999999996 0 0.74999999999999989 0.69999999999999996 0 0.74999999999999989 0.69999999999999996 0 0.79999999999999982 0.69999999999999996 0 0.79999999999999982 0.69999999999999996 0 0.84999999999999987 0.69999999999999996 0 0.84999999999999987 0.69999999999999996 0 0.89999999999999991 0.69999999999999996 0 0.89999999999999991 0.69999999999999996 0 0.94999999999999996 0.69999999999999996 0 0.94999999999999996 0.69999999999999996 0 1 0.69999999999999996 0 0.40076539126862748 0.34589349467022118 0 0.33277555741076909 0.36432196682010132 0 0.36575549820117997 0.31677992835137742 0 0.38083244760691543 0.38531983672244652 0 0.33277555741076909 0.36432196682010132 0 0.40076539126862748 0.34589349467022118 0 0.56836770495988642 0.3523062350852913 0 0.52289427570932567 0.3932284363388488 0 0.52752007115234678 0.33170632466418198 0 0.52752007115234678 0.33170632466418198 0 0.52289427570932567 0.3932284363388488 0 0.49077833859261139 0.35229981449445641 0 0.10000000000041601 1 0 0.053064897599294662 0.95186845269532028 0 0.10266856499240549 0.95548163909968886 0 0.099999999999814668 0 0 0.10266856499169109 0.044518360900210059 0 0.053064897599215843 0.048131547304697528 0 0.050000000000207989 1 0 0.053064897599294662 0.95186845269532028 0 0.10000000000041601 1 0 0.049999999999899652 0 0 0.099999999999814668 0 0 0.053064897599215843 0.048131547304697528 0 0.24999999999941211 0 0 0.29999999999926641 0 0 0.27499999999933927 0.060310814194988557 0 0.30000000000124832 1 0 0.25000000000104028 1 0 0.27609987656793722 0.94991445621608572 0 0.15720202157091859 0.60665697304410315 0 0.19914261668318661 0.62286739485272158 0 0.16500388252850301 0.66612077714085194 0 0.2236846579037573 0.67380363126050236 0 0.16500388252850301 0.66612077714085194 0 0.19914261668318661 0.62286739485272158 0 0.1247745017231483 0.27198077544791172 0 0.168349569971391 0.28054490850913671 0 0.14223753364722069 0.3341983344262433 0 0 0.75000000000034661 0 0 0.7000000000006934 0 0.049706944316475897 0.72477277076253799 0 0 0.30000000000124832 0 0 0.25000000000104028 0 0.049706944316556423 0.27522722923869108 0 0.59999999999999976 0.29999999999999999 0 0.61959173890754571 0.33832250091341232 0 0.56836770495988642 0.3523062350852913 0 0.5 0.69999999999999996 0 0.43323420005758778 0.6913544522562407 0 0.47913475093885149 0.66010775372412711 0 1 0.14999999999961891 0 0.95391631417672862 0.19584263333809451 0 0.93677536231883773 0.14999999999999089 0 1 0.84999999999982645 0 0.95391631417670719 0.89584263333814784 0 0.93677536231884972 0.85000000000000286 0 1 0.84999999999982645 0 0.93677536231884972 0.85000000000000286 0 0.95386563387742829 0.80414874155775029 0 1 0.14999999999961891 0 0.93677536231883773 0.14999999999999089 0 0.95386563387744361 0.1041487415577465 0 0.90416666666660628 0.9041666666666166 0 0.88088768115933802 0.84674609810493673 0 0.93677536231884972 0.85000000000000286 0 0.90416666666668166 0.20416666666667119 0 0.88088768115941807 0.14674609810479519 0 0.93677536231883773 0.14999999999999089 0 0.1247745017231483 0.27198077544791172 0 0.14223753364722069 0.3341983344262433 0 0.093851963071650835 0.30582068233324772 0 0.5 0.69999999999999996 0 0.45582236402875981 0.73896743678908217 0 0.43323420005758778 0.6913544522562407 0 0.55000000000173355 1 0 0.50000000000205869 1 0 0.52122150208832174 0.94089974453840242 0 0.49999999999869432 0 0 0.5499999999988151 0 0 0.52375890611712683 0.059318771819432882 0 0.54999999999999993 0.29999999999999999 0 0.59999999999999976 0.29999999999999999 0 0.56836770495988642 0.3523062350852913 0 0.50202631463681879 0.87892870825713787 0 0.44003836461056539 0.88093474584252718 0 0.45677673713123867 0.84253684404072415 0 0.33403534827021109 0.84402799729020661 0 0.35864759629805099 0.87963482415279515 0 0.30864387279288652 0.89906554525974958 0 0.53245488764484505 0.55078124999999989 0 0.47793794143994173 0.52940715638744962 0 0.53330375813596242 0.50827942741749099 0 0.82709327591102189 0.14937141670914489 0 0.81283102246527783 0.1881007222486438 0 0.77144070960558853 0.14311854477243749 0 0.82709327591091286 0.84937141670920724 0 0.81159157511211755 0.88795995483179491 0 0.76901770135486491 0.84293557325473656 0 0.77144070960558853 0.14311854477243749 0 0.81283102246527783 0.1881007222486438 0 0.76587607630038135 0.18880039518954719 0 0.76901770135486491 0.84293557325473656 0 0.81159157511211755 0.88795995483179491 0 0.76891166905518427 0.88835469571185499 0 0.33403534827021109 0.84402799729020661 0 0.30864387279288652 0.89906554525974958 0 0.29209212897034281 0.84715728365233667 0 0.57412547362576272 0.58273804879550706 0 0.5166924242153631 0.59825134841919447 0 0.53245488764484505 0.55078124999999989 0 0.50202631463681879 0.87892870825713787 0 0.47401147028110507 0.91529957330468115 0 0.44003836461056539 0.88093474584252718 0 0.5 0.69999999999999996 0 0.54999999999999993 0.69999999999999996 0 0.55363780716230748 0.74348740161571747 0 1 0.34999999999993492 0 0.95871855522754235 0.40006508612975411 0 0.95780851984364423 0.34215720972155339 0 1 0.64999999999986979 0 0.9578014258160763 0.65787212321113708 0 0.95867599106212187 0.60011091146651041 0 0.46666084890304671 0.57634471035397938 0 0.47793794143994173 0.52940715638744962 0 0.53245488764484505 0.55078124999999989 0 0.94999999999999996 0.29999999999999999 0 0.89898474358614167 0.25391965591104898 0 0.94399509803921056 0.24399509803922639 0 0.94999999999979179 1 0 0.89898474358632463 0.95391965591118966 0 0.94399509803919068 0.9439950980391687 0 0 0.65000000000104008 0 0.050069554451969707 0.61308520079857043 0 0.046634677244967337 0.671418230738282 0 0 0.35000000000145642 0 0.046389130980076937 0.32668781832131749 0 0.050583896093752537 0.38543522283434112 0 0.50202631463681879 0.87892870825713787 0 0.50627822638148745 0.8263979829520941 0 0.55899371797446828 0.85003102233514438 0 0.54782696902220018 0.79245182748204157 0 0.55899371797446828 0.85003102233514438 0 0.50627822638148745 0.8263979829520941 0 0.50945740445113552 0.75476055527778108 0 0.5 0.69999999999999996 0 0.55363780716230748 0.74348740161571747 0 0.84999999999965292 1 0 0.85170973911348691 0.93569607295217616 0 0.89898474358632463 0.95391965591118966 0 0.84999999999999987 0.29999999999999999 0 0.8517097391133297 0.2356960729520409 0 0.89898474358614167 0.25391965591104898 0 0.86956835336234861 0.571283299838105 0 0.82862096804812391 0.55037090955459045 0 0.86907294890112186 0.52008116128001669 0 0.49102375406324739 0.49123754822244059 0 0.53330375813596242 0.50827942741749099 0 0.47793794143994173 0.52940715638744962 0 0.57611405284611883 0.50165903596042916 0 0.61547661924074692 0.48539576058873962 0 0.62042975506801734 0.54295974692364424 0 0.71406021706547751 0.63292083137662503 0 0.67529834988829951 0.61613270668143583 0 0.71809016091162536 0.58185040402320831 0 0.65000000000104008 1 0 0.62065498684670595 0.95224934003983619 0 0.68015064798562208 0.95924320340003011 0 0.84999999999960507 0 0 0.899991664607802 0.045289349238254978 0 0.85491058998398861 0.060047533455626502 0 0.84999999999999987 0.69999999999999996 0 0.89999166460796554 0.74528934923809909 0 0.85491058998424563 0.76004753345552634 0 0.89999999999999991 0.29999999999999999 0 0.89898474358614167 0.25391965591104898 0 0.94999999999999996 0.29999999999999999 0 0.94999999999979179 1 0 0.89999999999958358 1 0 0.89898474358632463 0.95391965591118966 0 0.86411095495256451 0.42388805655111889 0 0.81308179852519835 0.39754945808726527 0 0.86844634540301924 0.38530937474099819 0 0.5 0.29999999999999999 0 0.49695729691142171 0.25014895411178018 0 0.54248833945060504 0.2520322959927106 0 0.86411095495256451 0.42388805655111889 0 0.81973119833356312 0.43505687159469048 0 0.81308179852519835 0.39754945808726527 0 0.67323294229744413 0.57556450033612505 0 0.71809016091162536 0.58185040402320831 0 0.67529834988829951 0.61613270668143583 0 0.6236733212988993 0.14864538214901801 0 0.68391457121233579 0.14440470121196541 0 0.64011864159029941 0.18789607982138171 0 0 0.050000000000207989 0 0.053064897599215843 0.048131547304697528 0 0.044310582753132287 0.101412518374475 0 0 0.94999999999979179 0 0.0443105827531413 0.89858748162559932 0 0.053064897599294662 0.95186845269532028 0 1 0.34999999999993492 0 1 0.39999999999978308 0 0.95871855522754235 0.40006508612975411 0 1 0.59999999999973963 0 1 0.64999999999986979 0 0.95867599106212187 0.60011091146651041 0 0 0.84999999999965292 0 0.065374659239661639 0.8551091961254178 0 0.0443105827531413 0.89858748162559932 0 0 0.15000000000062411 0 0.044310582753132287 0.101412518374475 0 0.065374659239632718 0.1448908038746782 0 0.16500388252850301 0.66612077714085194 0 0.1020579365089687 0.69352219419301997 0 0.1241190223511371 0.64391885572885044 0 0.14999999999970359 0 0 0.14618258501891079 0.062070108745602003 0 0.10266856499169109 0.044518360900210059 0 0.15000000000062411 1 0 0.10266856499240549 0.95548163909968886 0 0.14617343800780541 0.93808063414349496 0 0.7152569930854884 0.5237994455134295 0 0.67569444444444449 0.53500863336860327 0 0.69385896817107129 0.48377516041410151 0 0.6541250972820879 0.49999999999999989 0 0.62042975506801734 0.54295974692364424 0 0.61547661924074692 0.48539576058873962 0 0.94999999999999996 0.69999999999999996 0 0.94399509803918602 0.75600490196082126 0 0.89999166460796554 0.74528934923809909 0 0.94999999999986839 0 0 0.94399509803922566 0.056004901960802607 0 0.899991664607802 0.045289349238254978 0 0.6541250972820879 0.49999999999999989 0 0.69385896817107129 0.48377516041410151 0 0.67569444444444449 0.53500863336860327 0 0.82862096804812391 0.55037090955459045 0 0.81723410853263523 0.59419663659258926 0 0.77151014687832564 0.54436834383023036 0 0.7250000000005199 0.89375000000045834 0 0.66412543161245952 0.88015090885499059 0 0.68697391633157634 0.84450604838764298 0 0 0.94999999999979179 0 0 0.89999999999958358 0 0.0443105827531413 0.89858748162559932 0 0 0.10000000000041601 0 0 0.050000000000207989 0 0.044310582753132287 0.101412518374475 0 0.16500388252850301 0.66612077714085194 0 0.15332765547575641 0.71200081858233666 0 0.1020579365089687 0.69352219419301997 0 0.90299850604011456 0.79563452813489832 0 0.93677536231884972 0.85000000000000286 0 0.88088768115933802 0.84674609810493673 0 0.90299850604006393 0.09563452813493091 0 0.93677536231883773 0.14999999999999089 0 0.88088768115941807 0.14674609810479519 0 0.68391457121233579 0.14440470121196541 0 0.6865991819015953 0.189116534044597 0 0.64011864159029941 0.18789607982138171 0 0.085622222639554768 0.53333248912060549 0 0.1216098864341134 0.50637075089503902 0 0.1154888278694548 0.56733818459978413 0 0.21858834311891909 0.81980263716112767 0 0.22556077506376701 0.77837424984191617 0 0.26104540868854792 0.81401944968719064 0 0.81723410853263523 0.59419663659258926 0 0.77293540622714185 0.59448302402785813 0 0.77151014687832564 0.54436834383023036 0 0.1154888278694548 0.56733818459978413 0 0.1216098864341134 0.50637075089503902 0 0.14934928745814749 0.55042914607228977 0 0.1216098864341134 0.50637075089503902 0 0.068743045408989428 0.48853989837882689 0 0.113541300460994 0.46208784312094731 0 0.078358742472063481 0.43365249433908948 0 0.113541300460994 0.46208784312094731 0 0.068743045408989428 0.48853989837882689 0 0.83573492347052902 0.36590755630746369 0 0.81308179852519835 0.39754945808726527 0 0.78145581580700685 0.34881365920033602 0 0.57611405284611883 0.50165903596042916 0 0.62042975506801734 0.54295974692364424 0 0.57435499076887508 0.54267261987897775 0 0.86956835336234861 0.571283299838105 0 0.81723410853263523 0.59419663659258926 0 0.82862096804812391 0.55037090955459045 0 0.46666084890304671 0.57634471035397938 0 0.53245488764484505 0.55078124999999989 0 0.5166924242153631 0.59825134841919447 0 0.89999999999999991 0.69999999999999996 0 0.94999999999999996 0.69999999999999996 0 0.89999166460796554 0.74528934923809909 0 0.89999999999973679 0 0 0.94999999999986839 0 0 0.899991664607802 0.045289349238254978 0 0.84999999999960507 0 0 0.89999999999973679 0 0 0.899991664607802 0.045289349238254978 0 0.84999999999999987 0.69999999999999996 0 0.89999999999999991 0.69999999999999996 0 0.89999166460796554 0.74528934923809909 0 0.43545892161006339 0.61093128915313821 0 0.4089290844030305 0.58728915500154233 0 0.46666084890304671 0.57634471035397938 0 0.1650278706801647 0.38791388161335733 0 0.1117088112799664 0.38831403004970022 0 0.14223753364722069 0.3341983344262433 0 0.087545339447545459 0.35122518864182262 0 0.14223753364722069 0.3341983344262433 0 0.1117088112799664 0.38831403004970022 0 0.6916490518212759 0.75387992374886192 0 0.72501250972655151 0.74067302935308721 0 0.72500000000000064 0.7952620967744265 0 0.72501250972655151 0.74067302935308721 0 0.75841349681148107 0.75422312624214749 0 0.72500000000000064 0.7952620967744265 0 0.57412547362576272 0.58273804879550706 0 0.53245488764484505 0.55078124999999989 0 0.57435499076887508 0.54267261987897775 0 1 0.54999999999963112 0 0.95867599106212187 0.60011091146651041 0 0.93732437411268477 0.55911392101136159 0 1 0.44999999999963131 0 0.93814194660195893 0.44426664081746747 0 0.95871855522754235 0.40006508612975411 0 0.4089290844030305 0.58728915500154233 0 0.42644501560315817 0.54603747078095544 0 0.46666084890304671 0.57634471035397938 0 0.89999999999958358 1 0 0.84999999999965292 1 0 0.89898474358632463 0.95391965591118966 0 0.84999999999999987 0.29999999999999999 0 0.89898474358614167 0.25391965591104898 0 0.89999999999999991 0.29999999999999999 0 0.29999999999926641 0 0 0.32541448401678508 0.046215317981507749 0 0.27499999999933927 0.060310814194988557 0 0.30000000000124832 1 0 0.27609987656793722 0.94991445621608572 0 0.32544832635163229 0.95485394099568932 0 0.57412547362576272 0.58273804879550706 0 0.62042975506801734 0.54295974692364424 0 0.63065402604362242 0.59661356661633302 0 0.5 0.29999999999999999 0 0.54248833945060504 0.2520322959927106 0 0.54999999999999993 0.29999999999999999 0 0.67323294229744413 0.57556450033612505 0 0.62042975506801734 0.54295974692364424 0 0.67569444444444449 0.53500863336860327 0 0.6541250972820879 0.49999999999999989 0 0.67569444444444449 0.53500863336860327 0 0.62042975506801734 0.54295974692364424 0 1 0.14999999999961891 0 1 0.19999999999974799 0 0.95391631417672862 0.19584263333809451 0 1 0.84999999999982645 0 1 0.8999999999998336 0 0.95391631417670719 0.89584263333814784 0 1 0.7999999999998193 0 1 0.84999999999982645 0 0.95386563387742829 0.80414874155775029 0 1 0.099999999999753911 0 1 0.14999999999961891 0 0.95386563387744361 0.1041487415577465 0 0.4656888918609538 0.78493261229743638 0 0.50627822638148745 0.8263979829520941 0 0.45677673713123867 0.84253684404072415 0 0.6879972333610942 0.43038561374960838 0 0.72622533758026719 0.40265885511101601 0 0.73483647259922602 0.44789725365921768 0 0.67323294229744413 0.57556450033612505 0 0.67569444444444449 0.53500863336860327 0 0.71809016091162536 0.58185040402320831 0 0.7152569930854884 0.5237994455134295 0 0.71809016091162536 0.58185040402320831 0 0.67569444444444449 0.53500863336860327 0 0.65394964615507722 0.22666784374016369 0 0.59814117807200873 0.23398510860739519 0 0.64011864159029941 0.18789607982138171 0 0.55000000000173355 1 0 0.52122150208832174 0.94089974453840242 0 0.57382506491224949 0.9629411906298494 0 0.39801143831225599 0.16651381068160659 0 0.44288491854585582 0.14116182884956319 0 0.42905200079338551 0.19982395548231649 0 0.47357141910802508 0.1873585799078378 0 0.42905200079338551 0.19982395548231649 0 0.44288491854585582 0.14116182884956319 0 0.90594285160987287 0.4141265964174129 0 0.88594198078881503 0.46167788676578442 0 0.86411095495256451 0.42388805655111889 0 0.65507451745379841 0.92229208810758578 0 0.68015064798562208 0.95924320340003011 0 0.62065498684670595 0.95224934003983619 0 0.35312867752657662 0.084946736076730367 0 0.39591832466117061 0.056982757562006353 0 0.39823268594401579 0.1116623613130045 0 0.43698630808430822 0.080423614171545449 0 0.39823268594401579 0.1116623613130045 0 0.39591832466117061 0.056982757562006353 0 0.4367309254023824 0.92065556789053882 0 0.39641108128798319 0.94356127926187128 0 0.39767323751400468 0.89584229130535065 0 0.35752321586431363 0.9185439911803448 0 0.39767323751400468 0.89584229130535065 0 0.39641108128798319 0.94356127926187128 0 0.77354604466818633 0.40378688774472771 0 0.77972660463949339 0.45529290596363098 0 0.73483647259922602 0.44789725365921768 0 0.5499999999988151 0 0 0.57396793757665954 0.037011367187645222 0 0.52375890611712683 0.059318771819432882 0 0.64753070846764316 0.77332939069435502 0 0.60294066490120068 0.80851322453934582 0 0.59636844454254345 0.75937156204589151 0 0.49102375406324739 0.49123754822244059 0 0.48858720058566618 0.43964267759203868 0 0.53823865529665704 0.45873898050322898 0 0.28307294598219601 0.50789252727458634 0 0.29110487519241501 0.56588143995431495 0 0.25115337790845271 0.54719303014923271 0 0.79680861578988083 0.92656778056766709 0 0.81159157511211755 0.88795995483179491 0 0.85170973911348691 0.93569607295217616 0 0.79680861578956375 0.22656778056752541 0 0.81283102246527783 0.1881007222486438 0 0.8517097391133297 0.2356960729520409 0 0.57412547362576272 0.58273804879550706 0 0.57435499076887508 0.54267261987897775 0 0.62042975506801734 0.54295974692364424 0 0.93814194660195893 0.44426664081746747 0 0.88594198078881503 0.46167788676578442 0 0.90594285160987287 0.4141265964174129 0 0.7152569930854884 0.5237994455134295 0 0.73947346780852752 0.49062440112282169 0 0.77151014687832564 0.54436834383023036 0 0 0.7000000000006934 0 0.046634677244967337 0.671418230738282 0 0.049706944316475897 0.72477277076253799 0 0 0.30000000000124832 0 0.049706944316556423 0.27522722923869108 0 0.046389130980076937 0.32668781832131749 0 0.59814117807200873 0.23398510860739519 0 0.59443395090188023 0.18455690917515069 0 0.64011864159029941 0.18789607982138171 0 0.21858834311891909 0.81980263716112767 0 0.26104540868854792 0.81401944968719064 0 0.2401283238295133 0.85648409884788523 0 0.39536230704883951 0.84069429572832477 0 0.45677673713123867 0.84253684404072415 0 0.44003836461056539 0.88093474584252718 0 0.086179601630648681 0.64647209519980475 0 0.050069554451969707 0.61308520079857043 0 0.1024350934457823 0.60772393977513839 0 0.077693244765132896 0.56932317963405099 0 0.1024350934457823 0.60772393977513839 0 0.050069554451969707 0.61308520079857043 0 0.078358742472063481 0.43365249433908948 0 0.050583896093752537 0.38543522283434112 0 0.1117088112799664 0.38831403004970022 0 0.087545339447545459 0.35122518864182262 0 0.1117088112799664 0.38831403004970022 0 0.050583896093752537 0.38543522283434112 0 0.33403534827021109 0.84402799729020661 0 0.35642984951668422 0.80994399665655703 0 0.39536230704883951 0.84069429572832477 0 0.28307294598219601 0.50789252727458634 0 0.33190227185843768 0.52715113583864037 0 0.29110487519241501 0.56588143995431495 0 0.2236846579037573 0.67380363126050236 0 0.19068556247388771 0.71028988922845504 0 0.16500388252850301 0.66612077714085194 0 0.26104540868854792 0.81401944968719064 0 0.22556077506376701 0.77837424984191617 0 0.2792923945214143 0.77665808831789485 0 0.38244435121258652 0.51653317813019495 0 0.37272913873093971 0.56192925302619479 0 0.33190227185843768 0.52715113583864037 0 0.25195515620380449 0.25883339815888678 0 0.29132859388405002 0.27203693976649962 0 0.24432083401701241 0.3006253385567515 0 0.29348325746214782 0.31350119524708198 0 0.24432083401701241 0.3006253385567515 0 0.29132859388405002 0.27203693976649962 0 0 0.89999999999958358 0 0 0.84999999999965292 0 0.0443105827531413 0.89858748162559932 0 0 0.15000000000062411 0 0 0.10000000000041601 0 0.044310582753132287 0.101412518374475 0 0.59999999999999976 0.69999999999999996 0 0.59636844454254345 0.75937156204589151 0 0.55363780716230748 0.74348740161571747 0 0.1650278706801647 0.38791388161335733 0 0.22033343844674469 0.36963382230740238 0 0.191953871957803 0.42546416763755879 0 0.52289427570932567 0.3932284363388488 0 0.46655310992796922 0.39650496622958609 0 0.49077833859261139 0.35229981449445641 0 0.91696753777131557 0.497780560203536 0 0.88594198078881503 0.46167788676578442 0 0.93814194660195893 0.44426664081746747 0 0.24999999999941211 0 0 0.27499999999933927 0.060310814194988557 0 0.22668068146512929 0.045875643423131329 0 0.25000000000104028 1 0 0.22850979588452081 0.95594428570238643 0 0.27609987656793722 0.94991445621608572 0 0.77846603114747959 0.49850927265137401 0 0.77151014687832564 0.54436834383023036 0 0.73947346780852752 0.49062440112282169 0 0.27499999999933927 0.060310814194988557 0 0.27474541102162192 0.11822029332053539 0 0.24218496799700481 0.089025544070598317 0 0.27270076654418179 0.87751467830216623 0 0.29209212897034281 0.84715728365233667 0 0.30864387279288652 0.89906554525974958 0 0.3096713403101819 0.085471541595262421 0 0.27474541102162192 0.11822029332053539 0 0.27499999999933927 0.060310814194988557 0 0.17933913398461551 0.2350063570234002 0 0.18124454140915969 0.18790916706335251 0 0.224700362040408 0.22206622194729711 0 0.18269480424590959 0.75905448272264375 0 0.22556077506376701 0.77837424984191617 0 0.17777405986036951 0.81832336108265358 0 0.35864759629805099 0.87963482415279515 0 0.33403534827021109 0.84402799729020661 0 0.39536230704883951 0.84069429572832477 0 0.77354604466818633 0.40378688774472771 0 0.73483647259922602 0.44789725365921768 0 0.72622533758026719 0.40265885511101601 0 0.80185942888539485 0.77452061303608133 0 0.85491058998424563 0.76004753345552634 0 0.84725310900444062 0.80779732082917555 0 0.80185942888501827 0.074520613036224564 0 0.85491058998398861 0.060047533455626502 0 0.84725310900442086 0.10779732082922661 0 0.086179601630648681 0.64647209519980475 0 0.046634677244967337 0.671418230738282 0 0.050069554451969707 0.61308520079857043 0 0.087545339447545459 0.35122518864182262 0 0.050583896093752537 0.38543522283434112 0 0.046389130980076937 0.32668781832131749 0 0 0.75000000000034661 0 0.049706944316475897 0.72477277076253799 0 0.04408157711937423 0.7728941757575627 0 0 0.25000000000104028 0 0.044081577119474857 0.2271058242433576 0 0.049706944316556423 0.27522722923869108 0 0.52289427570932567 0.3932284363388488 0 0.56836770495988642 0.3523062350852913 0 0.57744073070774993 0.41535148636609359 0 0.6084546825910605 0.37989672713932537 0 0.57744073070774993 0.41535148636609359 0 0.56836770495988642 0.3523062350852913 0 0.61343887413683884 0.856862479058357 0 0.55899371797446828 0.85003102233514438 0 0.60294066490120068 0.80851322453934582 0 0.54782696902220018 0.79245182748204157 0 0.60294066490120068 0.80851322453934582 0 0.55899371797446828 0.85003102233514438 0 0.40326160981139969 0.73346192995102844 0 0.36622285152418499 0.69092437780804039 0 0.43323420005758778 0.6913544522562407 0 0.52289427570932567 0.3932284363388488 0 0.48858720058566618 0.43964267759203868 0 0.46655310992796922 0.39650496622958609 0 0.15720202157091859 0.60665697304410315 0 0.1154888278694548 0.56733818459978413 0 0.14934928745814749 0.55042914607228977 0 0.6879972333610942 0.43038561374960838 0 0.73483647259922602 0.44789725365921768 0 0.69385896817107129 0.48377516041410151 0 0.7250000000005199 0.89375000000045834 0 0.68987011941058407 0.92105047536677087 0 0.66412543161245952 0.88015090885499059 0 0.83573492347052902 0.36590755630746369 0 0.78145581580700685 0.34881365920033602 0 0.82500000000000062 0.33010209762754811 0 0.82862096804812391 0.55037090955459045 0 0.81441713509985358 0.51161854125224959 0 0.86907294890112186 0.52008116128001669 0 0.19670163708476801 0.31472518408333222 0 0.14223753364722069 0.3341983344262433 0 0.168349569971391 0.28054490850913671 0 0.50202631463681879 0.87892870825713787 0 0.45677673713123867 0.84253684404072415 0 0.50627822638148745 0.8263979829520941 0 0.099999999999814668 0 0 0.14999999999970359 0 0 0.10266856499169109 0.044518360900210059 0 0.15000000000062411 1 0 0.10000000000041601 1 0 0.10266856499240549 0.95548163909968886 0 0.67323294229744413 0.57556450033612505 0 0.63065402604362242 0.59661356661633302 0 0.62042975506801734 0.54295974692364424 0 0.083105206071467416 0.20007701332709979 0 0.13737030665753211 0.20313708640667491 0 0.095326043202144745 0.24554465089224409 0 0.083105206071452636 0.79992298667296435 0 0.090953281884486245 0.7564451946902494 0 0.1382744753146134 0.79650574229207483 0 0.50000000000205869 1 0 0.47135117303824892 0.95556877749289892 0 0.52122150208832174 0.94089974453840242 0 0.49999999999869432 0 0 0.52375890611712683 0.059318771819432882 0 0.47040171442036788 0.044141676406503738 0 0.4656888918609538 0.78493261229743638 0 0.45582236402875981 0.73896743678908217 0 0.50945740445113552 0.75476055527778108 0 0.5 0.69999999999999996 0 0.50945740445113552 0.75476055527778108 0 0.45582236402875981 0.73896743678908217 0 0.55306006949600994 0.20198184231352201 0 0.56202748619534593 0.15054058349222879 0 0.59443395090188023 0.18455690917515069 0 0.6236733212988993 0.14864538214901801 0 0.59443395090188023 0.18455690917515069 0 0.56202748619534593 0.15054058349222879 0 0.57412547362576272 0.58273804879550706 0 0.5498280205245758 0.6290146943450976 0 0.5166924242153631 0.59825134841919447 0 0.91696753777131557 0.497780560203536 0 0.93814194660195893 0.44426664081746747 0 0.96228564064454991 0.48206450662049471 0 0.15720202157091859 0.60665697304410315 0 0.16500388252850301 0.66612077714085194 0 0.1241190223511371 0.64391885572885044 0 0.44288491854585582 0.14116182884956319 0 0.47881186583059909 0.093591717165689425 0 0.48466639505193998 0.1421439844745814 0 1 0.54999999999963112 0 0.93732437411268477 0.55911392101136159 0 0.95631871884947484 0.51827533208233789 0 0.57724883562309992 0.92155686857100794 0 0.57382506491224949 0.9629411906298494 0 0.52122150208832174 0.94089974453840242 0 0.85170973911348691 0.93569607295217616 0 0.81159157511211755 0.88795995483179491 0 0.85600844944837662 0.88483418979512773 0 0.8517097391133297 0.2356960729520409 0 0.81283102246527783 0.1881007222486438 0 0.85600844944842547 0.1848341897950983 0 0.27866744612395528 0.38416094670951489 0 0.29124338931648802 0.43334555462578611 0 0.24049127783545701 0.41270748208749802 0 0.6084546825910605 0.37989672713932537 0 0.56836770495988642 0.3523062350852913 0 0.61959173890754571 0.33832250091341232 0 0.20050006573841939 0.53248514016039872 0 0.25115337790845271 0.54719303014923271 0 0.22549374774072969 0.58452645269293457 0 0.26573297623774761 0.59828298563722948 0 0.22549374774072969 0.58452645269293457 0 0.25115337790845271 0.54719303014923271 0 0.26104540868854792 0.81401944968719064 0 0.29209212897034281 0.84715728365233667 0 0.2401283238295133 0.85648409884788523 0 0.6236733212988993 0.14864538214901801 0 0.65290632656860115 0.11434202593454081 0 0.68391457121233579 0.14440470121196541 0 0.19901705110390991 0.9175543425573498 0 0.19741632902693801 0.86755867406447229 0 0.24536017905392571 0.90704567837671446 0 0.72500000000000064 0.7952620967744265 0 0.76901770135486491 0.84293557325473656 0 0.72863726579783861 0.85390518901155588 0 0.72500000000000064 0.7952620967744265 0 0.72863726579783861 0.85390518901155588 0 0.68697391633157634 0.84450604838764298 0 0.7250000000005199 0.89375000000045834 0 0.68697391633157634 0.84450604838764298 0 0.72863726579783861 0.85390518901155588 0 0.72525833953073282 0.1032114801687094 0 0.77144070960558853 0.14311854477243749 0 0.72634814642510737 0.16106886917518889 0 0.72525833953073282 0.1032114801687094 0 0.72634814642510737 0.16106886917518889 0 0.68391457121233579 0.14440470121196541 0 0.36622285152418499 0.69092437780804039 0 0.3977710372045391 0.65868194622830212 0 0.43323420005758778 0.6913544522562407 0 0 0.65000000000104008 0 0 0.60000000000138687 0 0.050069554451969707 0.61308520079857043 0 0 0.40000000000166441 0 0 0.35000000000145642 0 0.050583896093752537 0.38543522283434112 0 0.22033343844674469 0.36963382230740238 0 0.24049127783545701 0.41270748208749802 0 0.191953871957803 0.42546416763755879 0 0.5 0.29999999999999999 0 0.4604742573284204 0.27846934318264788 0 0.49695729691142171 0.25014895411178018 0 0.19741632902693801 0.86755867406447229 0 0.2401283238295133 0.85648409884788523 0 0.24536017905392571 0.90704567837671446 0 0 0.50000000000205869 0 0.068743045408989428 0.48853989837882689 0 0.044576108720083309 0.53509043209532614 0 0.15000000000062411 1 0 0.14617343800780541 0.93808063414349496 0 0.18474005699953849 0.96231585248064622 0 0.14999999999970359 0 0 0.184418230509967 0.038773194583122873 0 0.14618258501891079 0.062070108745602003 0 0.57667858002728545 0.078486105337742612 0 0.52375890611712683 0.059318771819432882 0 0.57396793757665954 0.037011367187645222 0 0.113541300460994 0.46208784312094731 0 0.078358742472063481 0.43365249433908948 0 0.13773355295499351 0.42497777642586831 0 0.77354604466818633 0.40378688774472771 0 0.78145581580700685 0.34881365920033602 0 0.81308179852519835 0.39754945808726527 0 0.38244435121258652 0.51653317813019495 0 0.33190227185843768 0.52715113583864037 0 0.35024835142131061 0.48654922671676981 0 0.64753070846764316 0.77332939069435502 0 0.65005442820240822 0.82644988530054031 0 0.60294066490120068 0.80851322453934582 0 0.15720202157091859 0.60665697304410315 0 0.1024350934457823 0.60772393977513839 0 0.1154888278694548 0.56733818459978413 0 0.90416666666660628 0.9041666666666166 0 0.85600844944837662 0.88483418979512773 0 0.88088768115933802 0.84674609810493673 0 0.90416666666668166 0.20416666666667119 0 0.85600844944842547 0.1848341897950983 0 0.88088768115941807 0.14674609810479519 0 0.078358742472063481 0.43365249433908948 0 0.1117088112799664 0.38831403004970022 0 0.13773355295499351 0.42497777642586831 0 0.38244435121258652 0.51653317813019495 0 0.3908716102680424 0.47010282357248828 0 0.43507373378304309 0.49699695397193322 0 0.90299850604011456 0.79563452813489832 0 0.95386563387742829 0.80414874155775029 0 0.93677536231884972 0.85000000000000286 0 0.90416666666660628 0.9041666666666166 0 0.93677536231884972 0.85000000000000286 0 0.95391631417670719 0.89584263333814784 0 0.90299850604006393 0.09563452813493091 0 0.95386563387744361 0.1041487415577465 0 0.93677536231883773 0.14999999999999089 0 0.90416666666668166 0.20416666666667119 0 0.93677536231883773 0.14999999999999089 0 0.95391631417672862 0.19584263333809451 0 0.39536230704883951 0.84069429572832477 0 0.44003836461056539 0.88093474584252718 0 0.39767323751400468 0.89584229130535065 0 0.51076801031701946 0.1202837388510348 0 0.52375890611712683 0.059318771819432882 0 0.54979595918804436 0.1060565713905809 0 0.57667858002728545 0.078486105337742612 0 0.54979595918804436 0.1060565713905809 0 0.52375890611712683 0.059318771819432882 0 0.57724883562309992 0.92155686857100794 0 0.52122150208832174 0.94089974453840242 0 0.54783390826260769 0.89287767010860219 0 0.50202631463681879 0.87892870825713787 0 0.54783390826260769 0.89287767010860219 0 0.52122150208832174 0.94089974453840242 0 0.087545339447545459 0.35122518864182262 0 0.093851963071650835 0.30582068233324772 0 0.14223753364722069 0.3341983344262433 0 0.54999999999999993 0.69999999999999996 0 0.59999999999999976 0.69999999999999996 0 0.55363780716230748 0.74348740161571747 0 0.083105206071452636 0.79992298667296435 0 0.1074251789111534 0.83564394292147814 0 0.065374659239661639 0.8551091961254178 0 0.083105206071467416 0.20007701332709979 0 0.065374659239632718 0.1448908038746782 0 0.106902708054812 0.16453234188234539 0 0.52289427570932567 0.3932284363388488 0 0.53823865529665704 0.45873898050322898 0 0.48858720058566618 0.43964267759203868 0 0.13737030665753211 0.20313708640667491 0 0.14377654328998779 0.2442024734791064 0 0.095326043202144745 0.24554465089224409 0 0.1382744753146134 0.79650574229207483 0 0.090953281884486245 0.7564451946902494 0 0.14335651144331049 0.75565258250209677 0 0.27270076654418179 0.87751467830216623 0 0.30864387279288652 0.89906554525974958 0 0.24536017905392571 0.90704567837671446 0 0.27609987656793722 0.94991445621608572 0 0.24536017905392571 0.90704567837671446 0 0.30864387279288652 0.89906554525974958 0 0.90299850604011456 0.79563452813489832 0 0.84725310900444062 0.80779732082917555 0 0.85491058998424563 0.76004753345552634 0 0.90299850604006393 0.09563452813493091 0 0.84725310900442086 0.10779732082922661 0 0.85491058998398861 0.060047533455626502 0 1 0.54999999999963112 0 1 0.59999999999973963 0 0.95867599106212187 0.60011091146651041 0 1 0.39999999999978308 0 1 0.44999999999963131 0 0.95871855522754235 0.40006508612975411 0 0.28040350263641872 0.23054717217092141 0 0.25195515620380449 0.25883339815888678 0 0.224700362040408 0.22206622194729711 0 0.84999999999999987 0.29999999999999999 0 0.87430060258887643 0.34056085888204451 0 0.82500000000000062 0.33010209762754811 0 0.84999999999999987 0.69999999999999996 0 0.82457059160610424 0.66831947184359608 0 0.87712158428786946 0.65709029563313581 0 0.86956835336234861 0.571283299838105 0 0.87159648282691515 0.61285406320581504 0 0.81723410853263523 0.59419663659258926 0 0.43698630808430822 0.080423614171545449 0 0.47881186583059909 0.093591717165689425 0 0.44288491854585582 0.14116182884956319 0 1 0.44999999999963131 0 0.96228564064454991 0.48206450662049471 0 0.93814194660195893 0.44426664081746747 0 0.35752321586431363 0.9185439911803448 0 0.30864387279288652 0.89906554525974958 0 0.35864759629805099 0.87963482415279515 0 0.29124338931648802 0.43334555462578611 0 0.25982634974572738 0.46097799597715272 0 0.24049127783545701 0.41270748208749802 0 0.51076801031701946 0.1202837388510348 0 0.56202748619534593 0.15054058349222879 0 0.51729576145820033 0.1683240575987815 0 0.55306006949600994 0.20198184231352201 0 0.51729576145820033 0.1683240575987815 0 0.56202748619534593 0.15054058349222879 0 0.26429849586623999 0.19346700179430079 0 0.28040350263641872 0.23054717217092141 0 0.224700362040408 0.22206622194729711 0 0.51076801031701946 0.1202837388510348 0 0.48466639505193998 0.1421439844745814 0 0.47881186583059909 0.093591717165689425 0 0.2185883431182947 0.18019736283949719 0 0.26429849586623999 0.19346700179430079 0 0.224700362040408 0.22206622194729711 0 0.18269480424590959 0.75905448272264375 0 0.2248999640082178 0.72584299459689172 0 0.22556077506376701 0.77837424984191617 0 0.51076801031701946 0.1202837388510348 0 0.47881186583059909 0.093591717165689425 0 0.52375890611712683 0.059318771819432882 0 0.50202631463681879 0.87892870825713787 0 0.52122150208832174 0.94089974453840242 0 0.47401147028110507 0.91529957330468115 0 0 0.84999999999965292 0 0.038512288486097702 0.8155852717111195 0 0.065374659239661639 0.8551091961254178 0 0 0.15000000000062411 0 0.065374659239632718 0.1448908038746782 0 0.038512288486115001 0.1844147282893184 0 0.2185883431182947 0.18019736283949719 0 0.224700362040408 0.22206622194729711 0 0.18124454140915969 0.18790916706335251 0 0.21858834311891909 0.81980263716112767 0 0.17777405986036951 0.81832336108265358 0 0.22556077506376701 0.77837424984191617 0 0.1215415378367805 0.72939333680004137 0 0.1020579365089687 0.69352219419301997 0 0.15332765547575641 0.71200081858233666 0 0.49695729691142171 0.25014895411178018 0 0.50760557329222289 0.20700468884612061 0 0.54248833945060504 0.2520322959927106 0 0.15720202157091859 0.60665697304410315 0 0.14934928745814749 0.55042914607228977 0 0.18381867841758909 0.57774125163628387 0 0.90416666666660628 0.9041666666666166 0 0.85170973911348691 0.93569607295217616 0 0.85600844944837662 0.88483418979512773 0 0.90416666666668166 0.20416666666667119 0 0.8517097391133297 0.2356960729520409 0 0.85600844944842547 0.1848341897950983 0 0.17933913398461551 0.2350063570234002 0 0.13737030665753211 0.20313708640667491 0 0.18124454140915969 0.18790916706335251 0 0.18269480424590959 0.75905448272264375 0 0.17777405986036951 0.81832336108265358 0 0.1382744753146134 0.79650574229207483 0 0.1216098864341134 0.50637075089503902 0 0.15801167086041079 0.46008690540259539 0 0.16618607197337229 0.50652878253548905 0 0.50760557329222289 0.20700468884612061 0 0.55306006949600994 0.20198184231352201 0 0.54248833945060504 0.2520322959927106 0 0.75000000000034661 1 0 0.7000000000006934 1 0 0.7250000000005199 0.94981617647078953 0 0.69999999999999984 0.29999999999999999 0 0.72500000000000064 0.2498161764706 0 0.74999999999999989 0.29999999999999999 0 0.72525833953073282 0.1032114801687094 0 0.68391457121233579 0.14440470121196541 0 0.68330259535470161 0.10038702501083881 0 0.43249999999999988 0.43937499999999979 0 0.46655310992796922 0.39650496622958609 0 0.48858720058566618 0.43964267759203868 0 0.19901705110390991 0.9175543425573498 0 0.14617343800780541 0.93808063414349496 0 0.16206583317966519 0.89685560785156404 0 0.19922788606653311 0.085920220746880993 0 0.16141998738593399 0.10404039647458049 0 0.14618258501891079 0.062070108745602003 0 0.31378396441836959 0.70157213313026345 0 0.26439878998046262 0.7048065392091396 0 0.27820712747429932 0.65530134213254643 0 0.1216098864341134 0.50637075089503902 0 0.113541300460994 0.46208784312094731 0 0.15801167086041079 0.46008690540259539 0 0.6084546825910605 0.37989672713932537 0 0.65481233915350323 0.35652751921065562 0 0.63912439215427275 0.41063340167983359 0 0.19901705110390991 0.9175543425573498 0 0.18474005699953849 0.96231585248064622 0 0.14617343800780541 0.93808063414349496 0 0.19922788606653311 0.085920220746880993 0 0.14618258501891079 0.062070108745602003 0 0.184418230509967 0.038773194583122873 0 0.38244435121258652 0.51653317813019495 0 0.35024835142131061 0.48654922671676981 0 0.3908716102680424 0.47010282357248828 0 0.82709327591102189 0.14937141670914489 0 0.77144070960558853 0.14311854477243749 0 0.80076557130237269 0.1154587552654202 0 0.82709327591091286 0.84937141670920724 0 0.76901770135486491 0.84293557325473656 0 0.80041942726660109 0.81543261647703358 0 0.43698630808430822 0.080423614171545449 0 0.44288491854585582 0.14116182884956319 0 0.39823268594401579 0.1116623613130045 0 0.39801143831225599 0.16651381068160659 0 0.39823268594401579 0.1116623613130045 0 0.44288491854585582 0.14116182884956319 0 0.36575549820117997 0.31677992835137742 0 0.3786248352540974 0.27082301512024259 0 0.41914690343363781 0.30688979866601612 0 0.42377727103934271 0.25099357235810238 0 0.41914690343363781 0.30688979866601612 0 0.3786248352540974 0.27082301512024259 0 0.049706944316475897 0.72477277076253799 0 0.1020579365089687 0.69352219419301997 0 0.090953281884486245 0.7564451946902494 0 0.1215415378367805 0.72939333680004137 0 0.090953281884486245 0.7564451946902494 0 0.1020579365089687 0.69352219419301997 0 0.1247745017231483 0.27198077544791172 0 0.093851963071650835 0.30582068233324772 0 0.095326043202144745 0.24554465089224409 0 0.049706944316556423 0.27522722923869108 0 0.095326043202144745 0.24554465089224409 0 0.093851963071650835 0.30582068233324772 0 0.77354604466818633 0.40378688774472771 0 0.81973119833356312 0.43505687159469048 0 0.77972660463949339 0.45529290596363098 0 0.43249999999999988 0.43937499999999979 0 0.43507373378304309 0.49699695397193322 0 0.3908716102680424 0.47010282357248828 0 0.26573297623774761 0.59828298563722948 0 0.2459498854893499 0.63248470766216769 0 0.22549374774072969 0.58452645269293457 0 0.72500000000000064 0.7952620967744265 0 0.77094201086366854 0.79647480515688507 0 0.76901770135486491 0.84293557325473656 0 0.72525833953073282 0.1032114801687094 0 0.76878382444651716 0.097147941686331368 0 0.77144070960558853 0.14311854477243749 0 0.72500000000000064 0.7952620967744265 0 0.68697391633157634 0.84450604838764298 0 0.68024162096458085 0.79868546898116533 0 0.31378396441836959 0.70157213313026345 0 0.29904318922293632 0.74132814928635593 0 0.26439878998046262 0.7048065392091396 0 0.31378396441836959 0.70157213313026345 0 0.35415581127540569 0.73730480045900215 0 0.29904318922293632 0.74132814928635593 0 0.61343887413683884 0.856862479058357 0 0.65005442820240822 0.82644988530054031 0 0.66412543161245952 0.88015090885499059 0 0.68697391633157634 0.84450604838764298 0 0.66412543161245952 0.88015090885499059 0 0.65005442820240822 0.82644988530054031 0 0.083411279318375747 0.91030024466934134 0 0.065374659239661639 0.8551091961254178 0 0.10562472963403439 0.87143394428979881 0 0.083411279318303222 0.089699755330707398 0 0.1053400320299198 0.12877248826361379 0 0.065374659239632718 0.1448908038746782 0 0.55306006949600994 0.20198184231352201 0 0.59443395090188023 0.18455690917515069 0 0.59814117807200873 0.23398510860739519 0 0.84999999999999987 0.29999999999999999 0 0.89999999999999991 0.29999999999999999 0 0.87430060258887643 0.34056085888204451 0 0.84999999999999987 0.69999999999999996 0 0.87712158428786946 0.65709029563313581 0 0.89999999999999991 0.69999999999999996 0 0.34258405725730701 0.4444034294386992 0 0.3908716102680424 0.47010282357248828 0 0.35024835142131061 0.48654922671676981 0 0.26573297623774761 0.59828298563722948 0 0.31502927232353312 0.6134992213375432 0 0.27820712747429932 0.65530134213254643 0 0.91696753777131557 0.497780560203536 0 0.86907294890112186 0.52008116128001669 0 0.88594198078881503 0.46167788676578442 0 0.84723782639812573 0.48638347960178252 0 0.88594198078881503 0.46167788676578442 0 0.86907294890112186 0.52008116128001669 0 0.7152569930854884 0.5237994455134295 0 0.77151014687832564 0.54436834383023036 0 0.71809016091162536 0.58185040402320831 0 0.90416666666660628 0.9041666666666166 0 0.89898474358632463 0.95391965591118966 0 0.85170973911348691 0.93569607295217616 0 0.90416666666668166 0.20416666666667119 0 0.89898474358614167 0.25391965591104898 0 0.8517097391133297 0.2356960729520409 0 0.91750694127107502 0.36982372220068471 0 0.95780851984364423 0.34215720972155339 0 0.95871855522754235 0.40006508612975411 0 0.91750694127105259 0.63017627779935648 0 0.95867599106212187 0.60011091146651041 0 0.9578014258160763 0.65787212321113708 0 0.90299850604011456 0.79563452813489832 0 0.88088768115933802 0.84674609810493673 0 0.84725310900444062 0.80779732082917555 0 0.90299850604006393 0.09563452813493091 0 0.88088768115941807 0.14674609810479519 0 0.84725310900442086 0.10779732082922661 0 0.1216098864341134 0.50637075089503902 0 0.16618607197337229 0.50652878253548905 0 0.14934928745814749 0.55042914607228977 0 0.20050006573841939 0.53248514016039872 0 0.14934928745814749 0.55042914607228977 0 0.16618607197337229 0.50652878253548905 0 0.80185942888539485 0.77452061303608133 0 0.84725310900444062 0.80779732082917555 0 0.80041942726660109 0.81543261647703358 0 0.80185942888501827 0.074520613036224564 0 0.84725310900442086 0.10779732082922661 0 0.80076557130237269 0.1154587552654202 0 0.083105206071452636 0.79992298667296435 0 0.065374659239661639 0.8551091961254178 0 0.038512288486097702 0.8155852717111195 0 0.083105206071467416 0.20007701332709979 0 0.038512288486115001 0.1844147282893184 0 0.065374659239632718 0.1448908038746782 0 0.54782696902220018 0.79245182748204157 0 0.59636844454254345 0.75937156204589151 0 0.60294066490120068 0.80851322453934582 0 0.083411279318375747 0.91030024466934134 0 0.0443105827531413 0.89858748162559932 0 0.065374659239661639 0.8551091961254178 0 0.083411279318303222 0.089699755330707398 0 0.065374659239632718 0.1448908038746782 0 0.044310582753132287 0.101412518374475 0 0.84999999999965292 1 0 0.81486180804382891 0.96321394949790495 0 0.85170973911348691 0.93569607295217616 0 0.84999999999999987 0.29999999999999999 0 0.81486180804364938 0.26321394949780091 0 0.8517097391133297 0.2356960729520409 0 0.4656888918609538 0.78493261229743638 0 0.45677673713123867 0.84253684404072415 0 0.42609163930740518 0.80361684430568059 0 0.39536230704883951 0.84069429572832477 0 0.42609163930740518 0.80361684430568059 0 0.45677673713123867 0.84253684404072415 0 0.6236733212988993 0.14864538214901801 0 0.56202748619534593 0.15054058349222879 0 0.58516465772821369 0.11653801664834119 0 0.57412547362576272 0.58273804879550706 0 0.63065402604362242 0.59661356661633302 0 0.5991018319127801 0.62925360607495295 0 0.61343887413683884 0.856862479058357 0 0.5832743223239254 0.88483152652961872 0 0.55899371797446828 0.85003102233514438 0 0.50202631463681879 0.87892870825713787 0 0.55899371797446828 0.85003102233514438 0 0.54783390826260769 0.89287767010860219 0 0.51076801031701946 0.1202837388510348 0 0.54979595918804436 0.1060565713905809 0 0.56202748619534593 0.15054058349222879 0 0.55306006949600994 0.20198184231352201 0 0.59814117807200873 0.23398510860739519 0 0.54248833945060504 0.2520322959927106 0 0.83573492347052902 0.36590755630746369 0 0.82500000000000062 0.33010209762754811 0 0.87430060258887643 0.34056085888204451 0 0.83758014339878906 0.63222013025741819 0 0.87712158428786946 0.65709029563313581 0 0.82457059160610424 0.66831947184359608 0 0.49102375406324739 0.49123754822244059 0 0.53823865529665704 0.45873898050322898 0 0.53330375813596242 0.50827942741749099 0 0.52289427570932567 0.3932284363388488 0 0.57744073070774993 0.41535148636609359 0 0.53823865529665704 0.45873898050322898 0 0.4089290844030305 0.58728915500154233 0 0.37272913873093971 0.56192925302619479 0 0.42644501560315817 0.54603747078095544 0 0.49695729691142171 0.25014895411178018 0 0.4604742573284204 0.27846934318264788 0 0.46429753744194407 0.22870891180733599 0 0.90299850604011456 0.79563452813489832 0 0.85491058998424563 0.76004753345552634 0 0.89999166460796554 0.74528934923809909 0 0.90299850604006393 0.09563452813493091 0 0.85491058998398861 0.060047533455626502 0 0.899991664607802 0.045289349238254978 0 0.38244435121258652 0.51653317813019495 0 0.42644501560315817 0.54603747078095544 0 0.37272913873093971 0.56192925302619479 0 0.71406021706547751 0.63292083137662503 0 0.71809016091162536 0.58185040402320831 0 0.74994237037456724 0.62775548192980357 0 0.84723782639812573 0.48638347960178252 0 0.86907294890112186 0.52008116128001669 0 0.81441713509985358 0.51161854125224959 0 0.33122374654748771 0.57588941099433744 0 0.33190227185843768 0.52715113583864037 0 0.37272913873093971 0.56192925302619479 0 0.086179601630648681 0.64647209519980475 0 0.1241190223511371 0.64391885572885044 0 0.1020579365089687 0.69352219419301997 0 0.59999999999894682 0 0 0.64999999999907843 0 0 0.61940220174112337 0.047251958781050582 0 0.18269480424590959 0.75905448272264375 0 0.14335651144331049 0.75565258250209677 0 0.15332765547575641 0.71200081858233666 0 0.22549374774072969 0.58452645269293457 0 0.2459498854893499 0.63248470766216769 0 0.19914261668318661 0.62286739485272158 0 0.38244435121258652 0.51653317813019495 0 0.43507373378304309 0.49699695397193322 0 0.42644501560315817 0.54603747078095544 0 0.65000000000104008 1 0 0.60000000000138687 1 0 0.62065498684670595 0.95224934003983619 0 0.078358742472063481 0.43365249433908948 0 0.068743045408989428 0.48853989837882689 0 0.033550201249889847 0.46247875832467239 0 0.2236846579037573 0.67380363126050236 0 0.27820712747429932 0.65530134213254643 0 0.26439878998046262 0.7048065392091396 0 0.6879972333610942 0.43038561374960838 0 0.68128176404677243 0.38629093627004979 0 0.72622533758026719 0.40265885511101601 0 0.72525833953073282 0.1032114801687094 0 0.7010294155333181 0.056779085686491267 0 0.7527966693318906 0.053051678021508272 0 0.18269480424590959 0.75905448272264375 0 0.15332765547575641 0.71200081858233666 0 0.19068556247388771 0.71028988922845504 0 0.1216098864341134 0.50637075089503902 0 0.085622222639554768 0.53333248912060549 0 0.068743045408989428 0.48853989837882689 0 0.25676291524611189 0.7436741304886243 0 0.26439878998046262 0.7048065392091396 0 0.29904318922293632 0.74132814928635593 0 0.65481233915350323 0.35652751921065562 0 0.68128176404677243 0.38629093627004979 0 0.63912439215427275 0.41063340167983359 0 0.83573492347052902 0.36590755630746369 0 0.86844634540301924 0.38530937474099819 0 0.81308179852519835 0.39754945808726527 0 0.27270076654418179 0.87751467830216623 0 0.2401283238295133 0.85648409884788523 0 0.29209212897034281 0.84715728365233667 0 0.84999999999999987 0.69999999999999996 0 0.85491058998424563 0.76004753345552634 0 0.81864958914779962 0.73589050177899629 0 0.84999999999960507 0 0 0.85491058998398861 0.060047533455626502 0 0.81864958914740749 0.035890501779055867 0 0.18381867841758909 0.57774125163628387 0 0.19914261668318661 0.62286739485272158 0 0.15720202157091859 0.60665697304410315 0 0.22549374774072969 0.58452645269293457 0 0.19914261668318661 0.62286739485272158 0 0.18381867841758909 0.57774125163628387 0 0.79680861578988083 0.92656778056766709 0 0.85170973911348691 0.93569607295217616 0 0.81486180804382891 0.96321394949790495 0 0.79680861578956375 0.22656778056752541 0 0.8517097391133297 0.2356960729520409 0 0.81486180804364938 0.26321394949780091 0 0.20050006573841939 0.53248514016039872 0 0.23975172658309729 0.49475499200540818 0 0.25115337790845271 0.54719303014923271 0 0.28307294598219601 0.50789252727458634 0 0.25115337790845271 0.54719303014923271 0 0.23975172658309729 0.49475499200540818 0 0.20050006573841939 0.53248514016039872 0 0.18381867841758909 0.57774125163628387 0 0.14934928745814749 0.55042914607228977 0 0.19922788606653311 0.085920220746880993 0 0.22985637510995899 0.1298347970200906 0 0.18652628422869419 0.14162325200928061 0 0.33758650185219202 0.23837101504325639 0 0.38831533174504851 0.2189834941785925 0 0.3786248352540974 0.27082301512024259 0 0.42377727103934271 0.25099357235810238 0 0.3786248352540974 0.27082301512024259 0 0.38831533174504851 0.2189834941785925 0 0.19922788606653311 0.085920220746880993 0 0.18652628422869419 0.14162325200928061 0 0.16141998738593399 0.10404039647458049 0 0.54782696902220018 0.79245182748204157 0 0.55363780716230748 0.74348740161571747 0 0.59636844454254345 0.75937156204589151 0 0.82709327591091286 0.84937141670920724 0 0.88088768115933802 0.84674609810493673 0 0.85600844944837662 0.88483418979512773 0 0.82709327591102189 0.14937141670914489 0 0.88088768115941807 0.14674609810479519 0 0.85600844944842547 0.1848341897950983 0 0.27866744612395528 0.38416094670951489 0 0.22033343844674469 0.36963382230740238 0 0.25966125648670141 0.34351016742083729 0 0 0.50000000000205869 0 0.033550201249889847 0.46247875832467239 0 0.068743045408989428 0.48853989837882689 0 0.31378396441836959 0.70157213313026345 0 0.36622285152418499 0.69092437780804039 0 0.35415581127540569 0.73730480045900215 0 0.77293540622714185 0.59448302402785813 0 0.71809016091162536 0.58185040402320831 0 0.77151014687832564 0.54436834383023036 0 0.7152569930854884 0.5237994455134295 0 0.69385896817107129 0.48377516041410151 0 0.73947346780852752 0.49062440112282169 0 0.15801167086041079 0.46008690540259539 0 0.191953871957803 0.42546416763755879 0 0.19604738184454831 0.47787523520405789 0 0.57667858002728545 0.078486105337742612 0 0.61940220174112337 0.047251958781050582 0 0.61956000905586006 0.1043312481793135 0 0.65408113592120842 0.073941773121567966 0 0.61956000905586006 0.1043312481793135 0 0.61940220174112337 0.047251958781050582 0 0 0.55000000000173355 0 0 0.50000000000205869 0 0.044576108720083309 0.53509043209532614 0 0.65507451745379841 0.92229208810758578 0 0.62065498684670595 0.95224934003983619 0 0.61885627562261258 0.90282959257498208 0 0.57724883562309992 0.92155686857100794 0 0.61885627562261258 0.90282959257498208 0 0.62065498684670595 0.95224934003983619 0 0.91750694127107502 0.36982372220068471 0 0.86844634540301924 0.38530937474099819 0 0.87430060258887643 0.34056085888204451 0 0.91750694127105259 0.63017627779935648 0 0.87712158428786946 0.65709029563313581 0 0.87159648282691515 0.61285406320581504 0 0.33123028043633618 0.77629643437932982 0 0.29904318922293632 0.74132814928635593 0 0.35415581127540569 0.73730480045900215 0 0.86411095495256451 0.42388805655111889 0 0.84925632466077294 0.45359738909549091 0 0.81973119833356312 0.43505687159469048 0 0.43846182030517877 0.64845797726506715 0 0.47913475093885149 0.66010775372412711 0 0.43323420005758778 0.6913544522562407 0 0.18269480424590959 0.75905448272264375 0 0.19068556247388771 0.71028988922845504 0 0.2248999640082178 0.72584299459689172 0 0.39536230704883951 0.84069429572832477 0 0.38586766253264881 0.78219501014812498 0 0.42609163930740518 0.80361684430568059 0 0.59999999999999976 0.69999999999999996 0 0.63221990677827677 0.73442891067859706 0 0.59636844454254345 0.75937156204589151 0 0.27866744612395528 0.38416094670951489 0 0.24049127783545701 0.41270748208749802 0 0.22033343844674469 0.36963382230740238 0 0.82709327591091286 0.84937141670920724 0 0.84725310900444062 0.80779732082917555 0 0.88088768115933802 0.84674609810493673 0 0.82709327591102189 0.14937141670914489 0 0.84725310900442086 0.10779732082922661 0 0.88088768115941807 0.14674609810479519 0 0.1650278706801647 0.38791388161335733 0 0.18434624290945251 0.35208838264196463 0 0.22033343844674469 0.36963382230740238 0 0.4409427642593301 0.35743108089689513 0 0.49077833859261139 0.35229981449445641 0 0.46655310992796922 0.39650496622958609 0 0.80185942888539485 0.77452061303608133 0 0.81864958914779962 0.73589050177899629 0 0.85491058998424563 0.76004753345552634 0 0.80185942888501827 0.074520613036224564 0 0.81864958914740749 0.035890501779055867 0 0.85491058998398861 0.060047533455626502 0 0.29999999999926641 0 0 0.34999999999912063 0 0 0.32541448401678508 0.046215317981507749 0 0.35000000000145642 1 0 0.30000000000124832 1 0 0.32544832635163229 0.95485394099568932 0 0.4656888918609538 0.78493261229743638 0 0.50731287292894423 0.78963574450233831 0 0.50627822638148745 0.8263979829520941 0 0.2185883431182947 0.18019736283949719 0 0.25557216766470708 0.15874861286892261 0 0.26429849586623999 0.19346700179430079 0 1 0.29999999999999999 0 1 0.34999999999993492 0 0.95780851984364423 0.34215720972155339 0 1 0.29999999999999999 0 0.95780851984364423 0.34215720972155339 0 0.94999999999999996 0.29999999999999999 0 1 0.69999999999999996 0 0.94999999999999996 0.69999999999999996 0 0.9578014258160763 0.65787212321113708 0 1 0.69999999999999996 0 0.9578014258160763 0.65787212321113708 0 1 0.64999999999986979 0 0.91750694127107502 0.36982372220068471 0 0.90594285160987287 0.4141265964174129 0 0.86844634540301924 0.38530937474099819 0 0.91750694127105259 0.63017627779935648 0 0.87159648282691515 0.61285406320581504 0 0.91143117093204207 0.58709913730335972 0 0.74999999999999989 0.69999999999999996 0 0.7750489929959945 0.66593931409600093 0 0.79999999999999982 0.69999999999999996 0 0.74999999999999989 0.29999999999999999 0 0.79999999999999982 0.29999999999999999 0 0.78145581580700685 0.34881365920033602 0 0.54999999999999993 0.69999999999999996 0 0.57484956128872922 0.66573805030881994 0 0.59999999999999976 0.69999999999999996 0 0.90299850604011456 0.79563452813489832 0 0.94399509803918602 0.75600490196082126 0 0.95386563387742829 0.80414874155775029 0 0.90416666666660628 0.9041666666666166 0 0.95391631417670719 0.89584263333814784 0 0.94399509803919068 0.9439950980391687 0 0.90299850604006393 0.09563452813493091 0 0.94399509803922566 0.056004901960802607 0 0.95386563387744361 0.1041487415577465 0 0.90416666666668166 0.20416666666667119 0 0.95391631417672862 0.19584263333809451 0 0.94399509803921056 0.24399509803922639 0 0.22278230690790279 0.44824268025881547 0 0.19604738184454831 0.47787523520405789 0 0.191953871957803 0.42546416763755879 0 0.90299850604011456 0.79563452813489832 0 0.89999166460796554 0.74528934923809909 0 0.94399509803918602 0.75600490196082126 0 0.90299850604006393 0.09563452813493091 0 0.899991664607802 0.045289349238254978 0 0.94399509803922566 0.056004901960802607 0 0.49102375406324739 0.49123754822244059 0 0.47793794143994173 0.52940715638744962 0 0.43507373378304309 0.49699695397193322 0 0.90416666666660628 0.9041666666666166 0 0.94399509803919068 0.9439950980391687 0 0.89898474358632463 0.95391965591118966 0 0.90416666666668166 0.20416666666667119 0 0.94399509803921056 0.24399509803922639 0 0.89898474358614167 0.25391965591104898 0 0.65394964615507722 0.22666784374016369 0 0.62657463266645097 0.26524202571255862 0 0.59814117807200873 0.23398510860739519 0 0.6084546825910605 0.37989672713932537 0 0.63912439215427275 0.41063340167983359 0 0.57744073070774993 0.41535148636609359 0 0.61209567303293111 0.44669033081290321 0 0.57744073070774993 0.41535148636609359 0 0.63912439215427275 0.41063340167983359 0 0.25676291524611189 0.7436741304886243 0 0.22556077506376701 0.77837424984191617 0 0.2248999640082178 0.72584299459689172 0 0.61343887413683884 0.856862479058357 0 0.60294066490120068 0.80851322453934582 0 0.65005442820240822 0.82644988530054031 0 0.64999999999907843 0 0 0.66369801598854572 0.036327466368102787 0 0.61940220174112337 0.047251958781050582 0 0.40326160981139969 0.73346192995102844 0 0.38586766253264881 0.78219501014812498 0 0.35415581127540569 0.73730480045900215 0 0.33123028043633618 0.77629643437932982 0 0.35415581127540569 0.73730480045900215 0 0.38586766253264881 0.78219501014812498 0 0.26573297623774761 0.59828298563722948 0 0.29110487519241501 0.56588143995431495 0 0.31502927232353312 0.6134992213375432 0 0.77846603114747959 0.49850927265137401 0 0.81441713509985358 0.51161854125224959 0 0.77151014687832564 0.54436834383023036 0 0.82862096804812391 0.55037090955459045 0 0.77151014687832564 0.54436834383023036 0 0.81441713509985358 0.51161854125224959 0 0.50000000000205869 1 0 0.45000000000187229 1 0 0.47135117303824892 0.95556877749289892 0 0.44999999999882923 0 0 0.49999999999869432 0 0 0.47040171442036788 0.044141676406503738 0 0 0.7000000000006934 0 0 0.65000000000104008 0 0.046634677244967337 0.671418230738282 0 0 0.35000000000145642 0 0 0.30000000000124832 0 0.046389130980076937 0.32668781832131749 0 0.31378396441836959 0.70157213313026345 0 0.27820712747429932 0.65530134213254643 0 0.32263089806001177 0.66003674931826484 0 0.33122374654748771 0.57588941099433744 0 0.31502927232353312 0.6134992213375432 0 0.29110487519241501 0.56588143995431495 0 0.26573297623774761 0.59828298563722948 0 0.27820712747429932 0.65530134213254643 0 0.2459498854893499 0.63248470766216769 0 0.14474682429600511 0.85524784522713515 0 0.16206583317966519 0.89685560785156404 0 0.1241151115713819 0.9045666525468371 0 0.14332333627550789 0.14578431753966009 0 0.12372429750337779 0.095814237875728972 0 0.16141998738593399 0.10404039647458049 0 0.64753070846764316 0.77332939069435502 0 0.59636844454254345 0.75937156204589151 0 0.63221990677827677 0.73442891067859706 0 0.14474682429600511 0.85524784522713515 0 0.1241151115713819 0.9045666525468371 0 0.10562472963403439 0.87143394428979881 0 0.14332333627550789 0.14578431753966009 0 0.1053400320299198 0.12877248826361379 0 0.12372429750337779 0.095814237875728972 0 0.77354604466818633 0.40378688774472771 0 0.81308179852519835 0.39754945808726527 0 0.81973119833356312 0.43505687159469048 0 0.54782696902220018 0.79245182748204157 0 0.50945740445113552 0.75476055527778108 0 0.55363780716230748 0.74348740161571747 0 0.2236846579037573 0.67380363126050236 0 0.2459498854893499 0.63248470766216769 0 0.27820712747429932 0.65530134213254643 0 0.77293540622714185 0.59448302402785813 0 0.74994237037456724 0.62775548192980357 0 0.71809016091162536 0.58185040402320831 0 0 0.79999999999999982 0 0 0.75000000000034661 0 0.04408157711937423 0.7728941757575627 0 0 0.25000000000104028 0 0 0.20000000000083221 0 0.044081577119474857 0.2271058242433576 0 0.19999999999955789 0 0 0.24999999999941211 0 0 0.22668068146512929 0.045875643423131329 0 0.25000000000104028 1 0 0.20000000000083221 1 0 0.22850979588452081 0.95594428570238643 0 0.47357141910802508 0.1873585799078378 0 0.44288491854585582 0.14116182884956319 0 0.48466639505193998 0.1421439844745814 0 0.59999999999999976 0.29999999999999999 0 0.5794309697024993 0.27124795968204829 0 0.62657463266645097 0.26524202571255862 0 0.43249999999999988 0.43937499999999979 0 0.42161023666869668 0.39493916313643851 0 0.46655310992796922 0.39650496622958609 0 0.31068898841644388 0.47541502461811092 0 0.33190227185843768 0.52715113583864037 0 0.28307294598219601 0.50789252727458634 0 0.35024835142131061 0.48654922671676981 0 0.33190227185843768 0.52715113583864037 0 0.31068898841644388 0.47541502461811092 0 0.35864735590330371 0.63903383440414463 0 0.36622285152418499 0.69092437780804039 0 0.32263089806001177 0.66003674931826484 0 0.31378396441836959 0.70157213313026345 0 0.32263089806001177 0.66003674931826484 0 0.36622285152418499 0.69092437780804039 0 0.86956835336234861 0.571283299838105 0 0.90900154012161016 0.53607784105648792 0 0.91143117093204207 0.58709913730335972 0 0.6499999999999998 0.29999999999999999 0 0.65481233915350323 0.35652751921065562 0 0.61959173890754571 0.33832250091341232 0 0.4409427642593301 0.35743108089689513 0 0.46226845272279993 0.31901800744800313 0 0.49077833859261139 0.35229981449445641 0 0.5 0.29999999999999999 0 0.49077833859261139 0.35229981449445641 0 0.46226845272279993 0.31901800744800313 0 0.14999999999970359 0 0 0.19999999999955789 0 0 0.184418230509967 0.038773194583122873 0 0.20000000000083221 1 0 0.15000000000062411 1 0 0.18474005699953849 0.96231585248064622 0 1 0.49999999999950101 0 1 0.54999999999963112 0 0.95631871884947484 0.51827533208233789 0 0.38586766253264881 0.78219501014812498 0 0.42676259796334498 0.76772545931379299 0 0.42609163930740518 0.80361684430568059 0 0.20050006573841939 0.53248514016039872 0 0.22549374774072969 0.58452645269293457 0 0.18381867841758909 0.57774125163628387 0 0.065374659239661639 0.8551091961254178 0 0.1074251789111534 0.83564394292147814 0 0.10562472963403439 0.87143394428979881 0 0.065374659239632718 0.1448908038746782 0 0.1053400320299198 0.12877248826361379 0 0.106902708054812 0.16453234188234539 0 0.1650278706801647 0.38791388161335733 0 0.14223753364722069 0.3341983344262433 0 0.18434624290945251 0.35208838264196463 0 0.43249999999999988 0.43937499999999979 0 0.46111841286828259 0.46690301029591341 0 0.43507373378304309 0.49699695397193322 0 0.83758014339878906 0.63222013025741819 0 0.81723410853263523 0.59419663659258926 0 0.87159648282691515 0.61285406320581504 0 0.19670163708476801 0.31472518408333222 0 0.18434624290945251 0.35208838264196463 0 0.14223753364722069 0.3341983344262433 0 0.75000000000034661 1 0 0.7250000000005199 0.94981617647078953 0 0.770759834363826 0.95919399014344442 0 0.74999999999999989 0.29999999999999999 0 0.72500000000000064 0.2498161764706 0 0.77075983436335049 0.25919399014334171 0 0.69999999999999984 0.29999999999999999 0 0.67933712972090698 0.25920070958121938 0 0.72500000000000064 0.2498161764706 0 0.57611405284611883 0.50165903596042916 0 0.53330375813596242 0.50827942741749099 0 0.53823865529665704 0.45873898050322898 0 0.6499999999999998 0.29999999999999999 0 0.68887083591306764 0.33632058575757479 0 0.65481233915350323 0.35652751921065562 0 0.27866744612395528 0.38416094670951489 0 0.33277555741076909 0.36432196682010132 0 0.31778888742534622 0.40581751814196781 0 0.49102375406324739 0.49123754822244059 0 0.43507373378304309 0.49699695397193322 0 0.46111841286828259 0.46690301029591341 0 0.94999999999999996 0.69999999999999996 0 0.97166519676947294 0.73337114490064459 0 0.94399509803918602 0.75600490196082126 0 0.94999999999986839 0 0 0.97166519676946894 0.033371144900598393 0 0.94399509803922566 0.056004901960802607 0 0.94999999999999996 0.29999999999999999 0 0.94399509803921056 0.24399509803922639 0 0.97166519676951801 0.26662885509932011 0 0.94999999999979179 1 0 0.94399509803919068 0.9439950980391687 0 0.97166519676946206 0.96662885509935492 0 0.34258405725730701 0.4444034294386992 0 0.29124338931648802 0.43334555462578611 0 0.31778888742534622 0.40581751814196781 0 0.27866744612395528 0.38416094670951489 0 0.31778888742534622 0.40581751814196781 0 0.29124338931648802 0.43334555462578611 0 0.36575549820117997 0.31677992835137742 0 0.33277555741076909 0.36432196682010132 0 0.32752639306529541 0.32610012995269699 0 0.35752321586431363 0.9185439911803448 0 0.32544832635163229 0.95485394099568932 0 0.30864387279288652 0.89906554525974958 0 0.27609987656793722 0.94991445621608572 0 0.30864387279288652 0.89906554525974958 0 0.32544832635163229 0.95485394099568932 0 0.33123028043633618 0.77629643437932982 0 0.30857225866488791 0.81101973481716805 0 0.2792923945214143 0.77665808831789485 0 0.33758650185219202 0.23837101504325639 0 0.29132859388405002 0.27203693976649962 0 0.28040350263641872 0.23054717217092141 0 0.4409427642593301 0.35743108089689513 0 0.41914690343363781 0.30688979866601612 0 0.46226845272279993 0.31901800744800313 0 0.14332333627550789 0.14578431753966009 0 0.13737030665753211 0.20313708640667491 0 0.106902708054812 0.16453234188234539 0 0.083105206071467416 0.20007701332709979 0 0.106902708054812 0.16453234188234539 0 0.13737030665753211 0.20313708640667491 0 0.083105206071452636 0.79992298667296435 0 0.1382744753146134 0.79650574229207483 0 0.1074251789111534 0.83564394292147814 0 0.14474682429600511 0.85524784522713515 0 0.1074251789111534 0.83564394292147814 0 0.1382744753146134 0.79650574229207483 0 0.65408113592120842 0.073941773121567966 0 0.7010294155333181 0.056779085686491267 0 0.68330259535470161 0.10038702501083881 0 0.72525833953073282 0.1032114801687094 0 0.68330259535470161 0.10038702501083881 0 0.7010294155333181 0.056779085686491267 0 0.049706944316475897 0.72477277076253799 0 0.046634677244967337 0.671418230738282 0 0.1020579365089687 0.69352219419301997 0 0.086179601630648681 0.64647209519980475 0 0.1020579365089687 0.69352219419301997 0 0.046634677244967337 0.671418230738282 0 0.087545339447545459 0.35122518864182262 0 0.046389130980076937 0.32668781832131749 0 0.093851963071650835 0.30582068233324772 0 0.049706944316556423 0.27522722923869108 0 0.093851963071650835 0.30582068233324772 0 0.046389130980076937 0.32668781832131749 0 0.82709327591091286 0.84937141670920724 0 0.80041942726660109 0.81543261647703358 0 0.84725310900444062 0.80779732082917555 0 0.82709327591102189 0.14937141670914489 0 0.80076557130237269 0.1154587552654202 0 0.84725310900442086 0.10779732082922661 0 0.17933913398461551 0.2350063570234002 0 0.14377654328998779 0.2442024734791064 0 0.13737030665753211 0.20313708640667491 0 0.18269480424590959 0.75905448272264375 0 0.1382744753146134 0.79650574229207483 0 0.14335651144331049 0.75565258250209677 0 0.33758650185219202 0.23837101504325639 0 0.3786248352540974 0.27082301512024259 0 0.33402499257867951 0.28911035184473982 0 0.14332333627550789 0.14578431753966009 0 0.18124454140915969 0.18790916706335251 0 0.13737030665753211 0.20313708640667491 0 0.14474682429600511 0.85524784522713515 0 0.1382744753146134 0.79650574229207483 0 0.17777405986036951 0.81832336108265358 0 0.5 0.29999999999999999 0 0.52752007115234678 0.33170632466418198 0 0.49077833859261139 0.35229981449445641 0 0.27866744612395528 0.38416094670951489 0 0.29644548887253103 0.34914008784168082 0 0.33277555741076909 0.36432196682010132 0 0 0.84999999999965292 0 0 0.79999999999999982 0 0.038512288486097702 0.8155852717111195 0 0 0.20000000000083221 0 0 0.15000000000062411 0 0.038512288486115001 0.1844147282893184 0 0.40326160981139969 0.73346192995102844 0 0.35415581127540569 0.73730480045900215 0 0.36622285152418499 0.69092437780804039 0 0.91696753777131557 0.497780560203536 0 0.96228564064454991 0.48206450662049471 0 0.95631871884947484 0.51827533208233789 0 0.33758650185219202 0.23837101504325639 0 0.31255190597181792 0.19850845631528771 0 0.3572130504031617 0.1874703368446563 0 0.59814117807200873 0.23398510860739519 0 0.62657463266645097 0.26524202571255862 0 0.5794309697024993 0.27124795968204829 0 0.34258405725730701 0.4444034294386992 0 0.31068898841644388 0.47541502461811092 0 0.29124338931648802 0.43334555462578611 0 0.38083244760691543 0.38531983672244652 0 0.35221190152536241 0.40457127605439203 0 0.33277555741076909 0.36432196682010132 0 0.083411279318375747 0.91030024466934134 0 0.10266856499240549 0.95548163909968886 0 0.053064897599294662 0.95186845269532028 0 0.083411279318303222 0.089699755330707398 0 0.053064897599215843 0.048131547304697528 0 0.10266856499169109 0.044518360900210059 0 0.42377727103934271 0.25099357235810238 0 0.4604742573284204 0.27846934318264788 0 0.41914690343363781 0.30688979866601612 0 0.28307294598219601 0.50789252727458634 0 0.25982634974572738 0.46097799597715272 0 0.31068898841644388 0.47541502461811092 0 0.29348325746214782 0.31350119524708198 0 0.29132859388405002 0.27203693976649962 0 0.33402499257867951 0.28911035184473982 0 0.35312867752657662 0.084946736076730367 0 0.39823268594401579 0.1116623613130045 0 0.36246644853392812 0.1399454205365751 0 0.7000000000006934 1 0 0.68015064798562208 0.95924320340003011 0 0.7250000000005199 0.94981617647078953 0 0.42377727103934271 0.25099357235810238 0 0.38831533174504851 0.2189834941785925 0 0.42905200079338551 0.19982395548231649 0 0.53823865529665704 0.45873898050322898 0 0.57744073070774993 0.41535148636609359 0 0.57975577671020095 0.46172033326338591 0 0.33758650185219202 0.23837101504325639 0 0.3572130504031617 0.1874703368446563 0 0.38831533174504851 0.2189834941785925 0 0.29124338931648802 0.43334555462578611 0 0.31068898841644388 0.47541502461811092 0 0.25982634974572738 0.46097799597715272 0 0.6084546825910605 0.37989672713932537 0 0.61959173890754571 0.33832250091341232 0 0.65481233915350323 0.35652751921065562 0 0.40326160981139969 0.73346192995102844 0 0.43323420005758778 0.6913544522562407 0 0.45582236402875981 0.73896743678908217 0 0.33758650185219202 0.23837101504325639 0 0.28040350263641872 0.23054717217092141 0 0.31255190597181792 0.19850845631528771 0 0.79999999999999982 1 0 0.75000000000034661 1 0 0.770759834363826 0.95919399014344442 0 0.74999999999999989 0.29999999999999999 0 0.77075983436335049 0.25919399014334171 0 0.79999999999999982 0.29999999999999999 0 0.6499999999999998 0.29999999999999999 0 0.67933712972090698 0.25920070958121938 0 0.69999999999999984 0.29999999999999999 0 0.39536230704883951 0.84069429572832477 0 0.39767323751400468 0.89584229130535065 0 0.35864759629805099 0.87963482415279515 0 0.54999999999999993 0.69999999999999996 0 0.52584555706968406 0.66664215091846768 0 0.57484956128872922 0.66573805030881994 0 0.35312867752657662 0.084946736076730367 0 0.32541448401678508 0.046215317981507749 0 0.3615861437013822 0.03582617922508851 0 0.35752321586431363 0.9185439911803448 0 0.36184234618600131 0.96443954459096326 0 0.32544832635163229 0.95485394099568932 0 0.35312867752657662 0.084946736076730367 0 0.3615861437013822 0.03582617922508851 0 0.39591832466117061 0.056982757562006353 0 0.35752321586431363 0.9185439911803448 0 0.39641108128798319 0.94356127926187128 0 0.36184234618600131 0.96443954459096326 0 0.083411279318303222 0.089699755330707398 0 0.044310582753132287 0.101412518374475 0 0.053064897599215843 0.048131547304697528 0 0.083411279318375747 0.91030024466934134 0 0.053064897599294662 0.95186845269532028 0 0.0443105827531413 0.89858748162559932 0 0.38083244760691543 0.38531983672244652 0 0.40076539126862748 0.34589349467022118 0 0.42161023666869668 0.39493916313643851 0 0.4409427642593301 0.35743108089689513 0 0.42161023666869668 0.39493916313643851 0 0.40076539126862748 0.34589349467022118 0 0.79999999999999982 0.29999999999999999 0 0.82500000000000062 0.33010209762754811 0 0.78145581580700685 0.34881365920033602 0 0.79999999999999982 0.69999999999999996 0 0.7750489929959945 0.66593931409600093 0 0.82457059160610424 0.66831947184359608 0 0.59999999999999976 0.69999999999999996 0 0.57484956128872922 0.66573805030881994 0 0.62460753523532009 0.66851202781000296 0 0.74999999999999989 0.69999999999999996 0 0.72500000000000064 0.67022701834392062 0 0.7750489929959945 0.66593931409600093 0 0.74999999999999989 0.29999999999999999 0 0.78145581580700685 0.34881365920033602 0 0.73090396928863699 0.33699297293167962 0 0.33758650185219202 0.23837101504325639 0 0.33402499257867951 0.28911035184473982 0 0.29132859388405002 0.27203693976649962 0 0.36575549820117997 0.31677992835137742 0 0.41914690343363781 0.30688979866601612 0 0.40076539126862748 0.34589349467022118 0 0.4409427642593301 0.35743108089689513 0 0.40076539126862748 0.34589349467022118 0 0.41914690343363781 0.30688979866601612 0 0.34258405725730701 0.4444034294386992 0 0.38707855792647411 0.42299362914874578 0 0.3908716102680424 0.47010282357248828 0 0.7000000000006934 1 0 0.65000000000104008 1 0 0.68015064798562208 0.95924320340003011 0 0.49102375406324739 0.49123754822244059 0 0.46111841286828259 0.46690301029591341 0 0.48858720058566618 0.43964267759203868 0 0.4656888918609538 0.78493261229743638 0 0.42676259796334498 0.76772545931379299 0 0.45582236402875981 0.73896743678908217 0 0.40326160981139969 0.73346192995102844 0 0.45582236402875981 0.73896743678908217 0 0.42676259796334498 0.76772545931379299 0 0.59999999999999976 0.29999999999999999 0 0.62657463266645097 0.26524202571255862 0 0.6499999999999998 0.29999999999999999 0 0.40000000000166441 1 0 0.36184234618600131 0.96443954459096326 0 0.39641108128798319 0.94356127926187128 0 0.3999999999989749 0 0 0.39591832466117061 0.056982757562006353 0 0.3615861437013822 0.03582617922508851 0 0.43249999999999988 0.43937499999999979 0 0.48858720058566618 0.43964267759203868 0 0.46111841286828259 0.46690301029591341 0 0.7250000000005199 0.89375000000045834 0 0.7250000000005199 0.94981617647078953 0 0.68987011941058407 0.92105047536677087 0 0.7250000000005199 0.89375000000045834 0 0.75729602384198635 0.92353652857884294 0 0.7250000000005199 0.94981617647078953 0 0.72500000000001008 0.19776155966387679 0 0.75668890529066124 0.2244279804069782 0 0.72500000000000064 0.2498161764706 0 0.72500000000001008 0.19776155966387679 0 0.72500000000000064 0.2498161764706 0 0.69397719155551807 0.2245125647000914 0 0.79999999999999982 0.29999999999999999 0 0.81486180804364938 0.26321394949780091 0 0.84999999999999987 0.29999999999999999 0 0.84999999999965292 1 0 0.79999999999999982 1 0 0.81486180804382891 0.96321394949790495 0 0.1247745017231483 0.27198077544791172 0 0.095326043202144745 0.24554465089224409 0 0.14377654328998779 0.2442024734791064 0 0.1215415378367805 0.72939333680004137 0 0.14335651144331049 0.75565258250209677 0 0.090953281884486245 0.7564451946902494 0 0.72500000000001008 0.19776155966387679 0 0.72634814642510737 0.16106886917518889 0 0.76587607630038135 0.18880039518954719 0 0.72500000000001008 0.19776155966387679 0 0.6865991819015953 0.189116534044597 0 0.72634814642510737 0.16106886917518889 0 0.77144070960558853 0.14311854477243749 0 0.76587607630038135 0.18880039518954719 0 0.72634814642510737 0.16106886917518889 0 0.68391457121233579 0.14440470121196541 0 0.72634814642510737 0.16106886917518889 0 0.6865991819015953 0.189116534044597 0 0.7250000000005199 0.89375000000045834 0 0.72863726579783861 0.85390518901155588 0 0.76891166905518427 0.88835469571185499 0 0.76901770135486491 0.84293557325473656 0 0.76891166905518427 0.88835469571185499 0 0.72863726579783861 0.85390518901155588 0 0 0.20000000000083221 0 0.038512288486115001 0.1844147282893184 0 0.044081577119474857 0.2271058242433576 0 0 0.79999999999999982 0 0.04408157711937423 0.7728941757575627 0 0.038512288486097702 0.8155852717111195 0 0.52375890611712683 0.059318771819432882 0 0.47881186583059909 0.093591717165689425 0 0.47040171442036788 0.044141676406503738 0 0.52122150208832174 0.94089974453840242 0 0.47135117303824892 0.95556877749289892 0 0.47401147028110507 0.91529957330468115 0 0.27474541102162192 0.11822029332053539 0 0.3096713403101819 0.085471541595262421 0 0.32215584939770009 0.1218492143506909 0 0.22278230690790279 0.44824268025881547 0 0.24049127783545701 0.41270748208749802 0 0.25982634974572738 0.46097799597715272 0 0.93732437411268477 0.55911392101136159 0 0.91143117093204207 0.58709913730335972 0 0.90900154012161016 0.53607784105648792 0 0.19901705110390991 0.9175543425573498 0 0.24536017905392571 0.90704567837671446 0 0.22850979588452081 0.95594428570238643 0 0.27609987656793722 0.94991445621608572 0 0.22850979588452081 0.95594428570238643 0 0.24536017905392571 0.90704567837671446 0 0.15720202157091859 0.60665697304410315 0 0.1241190223511371 0.64391885572885044 0 0.1024350934457823 0.60772393977513839 0 0.6499999999999998 0.69999999999999996 0 0.675261390228442 0.65996937624687813 0 0.69999999999999984 0.69999999999999996 0 0.3999999999989749 0 0 0.4320097814748517 0.037406712692169303 0 0.39591832466117061 0.056982757562006353 0 0.40000000000166441 1 0 0.39641108128798319 0.94356127926187128 0 0.4308986359464303 0.96395712492906194 0 0.54999999999999993 0.29999999999999999 0 0.56836770495988642 0.3523062350852913 0 0.52752007115234678 0.33170632466418198 0 0.14474682429600511 0.85524784522713515 0 0.17777405986036951 0.81832336108265358 0 0.19741632902693801 0.86755867406447229 0 0.21858834311891909 0.81980263716112767 0 0.19741632902693801 0.86755867406447229 0 0.17777405986036951 0.81832336108265358 0 0.54782696902220018 0.79245182748204157 0 0.50731287292894423 0.78963574450233831 0 0.50945740445113552 0.75476055527778108 0 0.20000000000083221 1 0 0.18474005699953849 0.96231585248064622 0 0.22850979588452081 0.95594428570238643 0 0.19999999999955789 0 0 0.22668068146512929 0.045875643423131329 0 0.184418230509967 0.038773194583122873 0 0.77846603114747959 0.49850927265137401 0 0.73947346780852752 0.49062440112282169 0 0.77972660463949339 0.45529290596363098 0 0.73483647259922602 0.44789725365921768 0 0.77972660463949339 0.45529290596363098 0 0.73947346780852752 0.49062440112282169 0 0.34258405725730701 0.4444034294386992 0 0.35024835142131061 0.48654922671676981 0 0.31068898841644388 0.47541502461811092 0 0.33123028043633618 0.77629643437932982 0 0.2792923945214143 0.77665808831789485 0 0.29904318922293632 0.74132814928635593 0 0.26573297623774761 0.59828298563722948 0 0.25115337790845271 0.54719303014923271 0 0.29110487519241501 0.56588143995431495 0 0.4656888918609538 0.78493261229743638 0 0.50945740445113552 0.75476055527778108 0 0.50731287292894423 0.78963574450233831 0 0.35312867752657662 0.084946736076730367 0 0.36246644853392812 0.1399454205365751 0 0.32215584939770009 0.1218492143506909 0 0.29348325746214782 0.31350119524708198 0 0.25966125648670141 0.34351016742083729 0 0.24432083401701241 0.3006253385567515 0 0.59999999999999976 0.69999999999999996 0 0.6499999999999998 0.69999999999999996 0 0.63221990677827677 0.73442891067859706 0 0.69999999999921003 0 0 0.7010294155333181 0.056779085686491267 0 0.66369801598854572 0.036327466368102787 0 0.40000000000166441 1 0 0.35000000000145642 1 0 0.36184234618600131 0.96443954459096326 0 0.34999999999912063 0 0 0.3999999999989749 0 0 0.3615861437013822 0.03582617922508851 0 0.43507373378304309 0.49699695397193322 0 0.47793794143994173 0.52940715638744962 0 0.42644501560315817 0.54603747078095544 0 0.14474682429600511 0.85524784522713515 0 0.19741632902693801 0.86755867406447229 0 0.16206583317966519 0.89685560785156404 0 0.19901705110390991 0.9175543425573498 0 0.16206583317966519 0.89685560785156404 0 0.19741632902693801 0.86755867406447229 0 0.35864735590330371 0.63903383440414463 0 0.3977710372045391 0.65868194622830212 0 0.36622285152418499 0.69092437780804039 0 0.7527966693318906 0.053051678021508272 0 0.7010294155333181 0.056779085686491267 0 0.72683645290270404 0.027797073151180601 0 0.71508799138962864 0.36622814920737751 0 0.72622533758026719 0.40265885511101601 0 0.68128176404677243 0.38629093627004979 0 0.79999999999999982 0.69999999999999996 0 0.84999999999999987 0.69999999999999996 0 0.81864958914779962 0.73589050177899629 0 0.79999999999947335 0 0 0.84999999999960507 0 0 0.81864958914740749 0.035890501779055867 0 0.39536230704883951 0.84069429572832477 0 0.35642984951668422 0.80994399665655703 0 0.38586766253264881 0.78219501014812498 0 0.42377727103934271 0.25099357235810238 0 0.46429753744194407 0.22870891180733599 0 0.4604742573284204 0.27846934318264788 0 0.39801143831225599 0.16651381068160659 0 0.42905200079338551 0.19982395548231649 0 0.38831533174504851 0.2189834941785925 0 0.79999999999999982 1 0 0.770759834363826 0.95919399014344442 0 0.81486180804382891 0.96321394949790495 0 0.79999999999999982 0.29999999999999999 0 0.77075983436335049 0.25919399014334171 0 0.81486180804364938 0.26321394949780091 0 0.25195515620380449 0.25883339815888678 0 0.21049769590865089 0.26857363548218488 0 0.224700362040408 0.22206622194729711 0 0.40326160981139969 0.73346192995102844 0 0.42676259796334498 0.76772545931379299 0 0.38586766253264881 0.78219501014812498 0 0.35312867752657662 0.084946736076730367 0 0.3096713403101819 0.085471541595262421 0 0.32541448401678508 0.046215317981507749 0 0.59999999999999976 0.29999999999999999 0 0.6499999999999998 0.29999999999999999 0 0.61959173890754571 0.33832250091341232 0 0.2185883431182947 0.18019736283949719 0 0.18652628422869419 0.14162325200928061 0 0.22985637510995899 0.1298347970200906 0 0.64999999999907843 0 0 0.69999999999921003 0 0 0.66369801598854572 0.036327466368102787 0 0.27499999999933927 0.060310814194988557 0 0.24218496799700481 0.089025544070598317 0 0.22668068146512929 0.045875643423131329 0 0.19922788606653311 0.085920220746880993 0 0.22668068146512929 0.045875643423131329 0 0.24218496799700481 0.089025544070598317 0 0.65507451745379841 0.92229208810758578 0 0.66412543161245952 0.88015090885499059 0 0.68987011941058407 0.92105047536677087 0 0.049706944316475897 0.72477277076253799 0 0.090953281884486245 0.7564451946902494 0 0.04408157711937423 0.7728941757575627 0 0.083105206071452636 0.79992298667296435 0 0.04408157711937423 0.7728941757575627 0 0.090953281884486245 0.7564451946902494 0 0.083105206071467416 0.20007701332709979 0 0.095326043202144745 0.24554465089224409 0 0.044081577119474857 0.2271058242433576 0 0.049706944316556423 0.27522722923869108 0 0.044081577119474857 0.2271058242433576 0 0.095326043202144745 0.24554465089224409 0 0.36575549820117997 0.31677992835137742 0 0.33402499257867951 0.28911035184473982 0 0.3786248352540974 0.27082301512024259 0 0.53245488764484505 0.55078124999999989 0 0.53330375813596242 0.50827942741749099 0 0.57435499076887508 0.54267261987897775 0 0.57611405284611883 0.50165903596042916 0 0.57435499076887508 0.54267261987897775 0 0.53330375813596242 0.50827942741749099 0 0.6499999999999998 0.29999999999999999 0 0.69999999999999984 0.29999999999999999 0 0.68887083591306764 0.33632058575757479 0 0.57611405284611883 0.50165903596042916 0 0.53823865529665704 0.45873898050322898 0 0.57975577671020095 0.46172033326338591 0 0.7750489929959945 0.66593931409600093 0 0.72500000000000064 0.67022701834392062 0 0.74994237037456724 0.62775548192980357 0 0.78145581580700685 0.34881365920033602 0 0.74764719760526988 0.3719647154012321 0 0.73090396928863699 0.33699297293167962 0 0.3999999999989749 0 0 0.44999999999882923 0 0 0.4320097814748517 0.037406712692169303 0 0.45000000000187229 1 0 0.40000000000166441 1 0 0.4308986359464303 0.96395712492906194 0 0.57484956128872922 0.66573805030881994 0 0.5991018319127801 0.62925360607495295 0 0.62460753523532009 0.66851202781000296 0 0.7750489929959945 0.66593931409600093 0 0.79884539758237771 0.62875045078114233 0 0.82457059160610424 0.66831947184359608 0 0.39801143831225599 0.16651381068160659 0 0.36246644853392812 0.1399454205365751 0 0.39823268594401579 0.1116623613130045 0 0.078358742472063481 0.43365249433908948 0 0.033550201249889847 0.46247875832467239 0 0.035463093262830522 0.42673416072819947 0 0.25676291524611189 0.7436741304886243 0 0.2792923945214143 0.77665808831789485 0 0.22556077506376701 0.77837424984191617 0 0.2236846579037573 0.67380363126050236 0 0.2248999640082178 0.72584299459689172 0 0.19068556247388771 0.71028988922845504 0 0.50715858906372158 0.63295939104129484 0 0.5166924242153631 0.59825134841919447 0 0.5498280205245758 0.6290146943450976 0 0.14618258501891079 0.062070108745602003 0 0.12372429750337779 0.095814237875728972 0 0.10266856499169109 0.044518360900210059 0 0.083411279318303222 0.089699755330707398 0 0.10266856499169109 0.044518360900210059 0 0.12372429750337779 0.095814237875728972 0 0.083411279318375747 0.91030024466934134 0 0.1241151115713819 0.9045666525468371 0 0.10266856499240549 0.95548163909968886 0 0.14617343800780541 0.93808063414349496 0 0.10266856499240549 0.95548163909968886 0 0.1241151115713819 0.9045666525468371 0 0.5499999999988151 0 0 0.59999999999894682 0 0 0.57396793757665954 0.037011367187645222 0 0.54782696902220018 0.79245182748204157 0 0.50627822638148745 0.8263979829520941 0 0.50731287292894423 0.78963574450233831 0 0.6499999999999998 0.29999999999999999 0 0.62657463266645097 0.26524202571255862 0 0.67933712972090698 0.25920070958121938 0 0.86956835336234861 0.571283299838105 0 0.86907294890112186 0.52008116128001669 0 0.90900154012161016 0.53607784105648792 0 0.17933913398461551 0.2350063570234002 0 0.224700362040408 0.22206622194729711 0 0.21049769590865089 0.26857363548218488 0 0.43249999999999988 0.43937499999999979 0 0.3908716102680424 0.47010282357248828 0 0.38707855792647411 0.42299362914874578 0 0.27474541102162192 0.11822029332053539 0 0.22985637510995899 0.1298347970200906 0 0.24218496799700481 0.089025544070598317 0 0.64753070846764316 0.77332939069435502 0 0.66427993341343905 0.73232764502436276 0 0.6916490518212759 0.75387992374886192 0 0 0.40000000000166441 0 0.050583896093752537 0.38543522283434112 0 0.035463093262830522 0.42673416072819947 0 0.73483647259922602 0.44789725365921768 0 0.73947346780852752 0.49062440112282169 0 0.69385896817107129 0.48377516041410151 0 0.57484956128872922 0.66573805030881994 0 0.52584555706968406 0.66664215091846768 0 0.5498280205245758 0.6290146943450976 0 0.60000000000138687 1 0 0.55000000000173355 1 0 0.57382506491224949 0.9629411906298494 0 0.068743045408989428 0.48853989837882689 0 0.085622222639554768 0.53333248912060549 0 0.044576108720083309 0.53509043209532614 0 0.083105206071467416 0.20007701332709979 0 0.044081577119474857 0.2271058242433576 0 0.038512288486115001 0.1844147282893184 0 0.083105206071452636 0.79992298667296435 0 0.038512288486097702 0.8155852717111195 0 0.04408157711937423 0.7728941757575627 0 0.28307294598219601 0.50789252727458634 0 0.23975172658309729 0.49475499200540818 0 0.25982634974572738 0.46097799597715272 0 0.43698630808430822 0.080423614171545449 0 0.39591832466117061 0.056982757562006353 0 0.4320097814748517 0.037406712692169303 0 0.4367309254023824 0.92065556789053882 0 0.4308986359464303 0.96395712492906194 0 0.39641108128798319 0.94356127926187128 0 0.80185942888539485 0.77452061303608133 0 0.75841349681148107 0.75422312624214749 0 0.78578450296893509 0.73292684821144505 0 0.80185942888501827 0.074520613036224564 0 0.7527966693318906 0.053051678021508272 0 0.78393852574753176 0.032039079577822822 0 0.6499999999999998 0.69999999999999996 0 0.62460753523532009 0.66851202781000296 0 0.675261390228442 0.65996937624687813 0 0.33123028043633618 0.77629643437932982 0 0.38586766253264881 0.78219501014812498 0 0.35642984951668422 0.80994399665655703 0 0.6405463747586706 0.63290524857395714 0 0.675261390228442 0.65996937624687813 0 0.62460753523532009 0.66851202781000296 0 0.22278230690790279 0.44824268025881547 0 0.191953871957803 0.42546416763755879 0 0.24049127783545701 0.41270748208749802 0 0.077693244765132896 0.56932317963405099 0 0.050069554451969707 0.61308520079857043 0 0.034381862692950467 0.57372682250960894 0 0.25195515620380449 0.25883339815888678 0 0.24432083401701241 0.3006253385567515 0 0.21049769590865089 0.26857363548218488 0 0.46666084890304671 0.57634471035397938 0 0.5166924242153631 0.59825134841919447 0 0.47095389620662098 0.61892551373708504 0 0.50715858906372158 0.63295939104129484 0 0.47095389620662098 0.61892551373708504 0 0.5166924242153631 0.59825134841919447 0 0.72525833953073282 0.1032114801687094 0 0.7527966693318906 0.053051678021508272 0 0.76878382444651716 0.097147941686331368 0 0.80185942888501827 0.074520613036224564 0 0.76878382444651716 0.097147941686331368 0 0.7527966693318906 0.053051678021508272 0 0.72500000000000064 0.7952620967744265 0 0.75841349681148107 0.75422312624214749 0 0.77094201086366854 0.79647480515688507 0 0.80185942888539485 0.77452061303608133 0 0.77094201086366854 0.79647480515688507 0 0.75841349681148107 0.75422312624214749 0 0.72500000000000064 0.7952620967744265 0 0.68024162096458085 0.79868546898116533 0 0.6916490518212759 0.75387992374886192 0 0.64753070846764316 0.77332939069435502 0 0.6916490518212759 0.75387992374886192 0 0.68024162096458085 0.79868546898116533 0 0 0.50000000000205869 0 0 0.45000000000187229 0 0.033550201249889847 0.46247875832467239 0 0.69999999999999984 0.69999999999999996 0 0.675261390228442 0.65996937624687813 0 0.72500000000000064 0.67022701834392062 0 0.71406021706547751 0.63292083137662503 0 0.72500000000000064 0.67022701834392062 0 0.675261390228442 0.65996937624687813 0 0.65408113592120842 0.073941773121567966 0 0.61940220174112337 0.047251958781050582 0 0.66369801598854572 0.036327466368102787 0 0.59999999999894682 0 0 0.61940220174112337 0.047251958781050582 0 0.57396793757665954 0.037011367187645222 0 0.60000000000138687 1 0 0.57382506491224949 0.9629411906298494 0 0.62065498684670595 0.95224934003983619 0 0.33122374654748771 0.57588941099433744 0 0.35765792684946668 0.6000687869219653 0 0.31502927232353312 0.6134992213375432 0 0.35864735590330371 0.63903383440414463 0 0.31502927232353312 0.6134992213375432 0 0.35765792684946668 0.6000687869219653 0 0.15801167086041079 0.46008690540259539 0 0.19604738184454831 0.47787523520405789 0 0.16618607197337229 0.50652878253548905 0 0.078358742472063481 0.43365249433908948 0 0.035463093262830522 0.42673416072819947 0 0.050583896093752537 0.38543522283434112 0 0.19901705110390991 0.9175543425573498 0 0.22850979588452081 0.95594428570238643 0 0.18474005699953849 0.96231585248064622 0 0.19922788606653311 0.085920220746880993 0 0.184418230509967 0.038773194583122873 0 0.22668068146512929 0.045875643423131329 0 0.19922788606653311 0.085920220746880993 0 0.24218496799700481 0.089025544070598317 0 0.22985637510995899 0.1298347970200906 0 0.74999999999999989 0.69999999999999996 0 0.78578450296893509 0.73292684821144505 0 0.75841349681148107 0.75422312624214749 0 0.74999999999934175 0 0 0.78393852574753176 0.032039079577822822 0 0.7527966693318906 0.053051678021508272 0 0 0.60000000000138687 0 0.034381862692950467 0.57372682250960894 0 0.050069554451969707 0.61308520079857043 0 0.2236846579037573 0.67380363126050236 0 0.26439878998046262 0.7048065392091396 0 0.2248999640082178 0.72584299459689172 0 0.6236733212988993 0.14864538214901801 0 0.58516465772821369 0.11653801664834119 0 0.61956000905586006 0.1043312481793135 0 0.26104540868854792 0.81401944968719064 0 0.2792923945214143 0.77665808831789485 0 0.30857225866488791 0.81101973481716805 0 0.42377727103934271 0.25099357235810238 0 0.42905200079338551 0.19982395548231649 0 0.46429753744194407 0.22870891180733599 0 0.27820712747429932 0.65530134213254643 0 0.31502927232353312 0.6134992213375432 0 0.32263089806001177 0.66003674931826484 0 0.61343887413683884 0.856862479058357 0 0.61885627562261258 0.90282959257498208 0 0.5832743223239254 0.88483152652961872 0 0.43698630808430822 0.080423614171545449 0 0.47040171442036788 0.044141676406503738 0 0.47881186583059909 0.093591717165689425 0 0.4367309254023824 0.92065556789053882 0 0.47401147028110507 0.91529957330468115 0 0.47135117303824892 0.95556877749289892 0 0.91696753777131557 0.497780560203536 0 0.95631871884947484 0.51827533208233789 0 0.90900154012161016 0.53607784105648792 0 0.93732437411268477 0.55911392101136159 0 0.90900154012161016 0.53607784105648792 0 0.95631871884947484 0.51827533208233789 0 0.27474541102162192 0.11822029332053539 0 0.25557216766470708 0.15874861286892261 0 0.22985637510995899 0.1298347970200906 0 0.2185883431182947 0.18019736283949719 0 0.22985637510995899 0.1298347970200906 0 0.25557216766470708 0.15874861286892261 0 0.29348325746214782 0.31350119524708198 0 0.33402499257867951 0.28911035184473982 0 0.32752639306529541 0.32610012995269699 0 0.27499999999933927 0.060310814194988557 0 0.32541448401678508 0.046215317981507749 0 0.3096713403101819 0.085471541595262421 0 0.27270076654418179 0.87751467830216623 0 0.24536017905392571 0.90704567837671446 0 0.2401283238295133 0.85648409884788523 0 1 0.44999999999963131 0 1 0.49999999999950101 0 0.96228564064454991 0.48206450662049471 0 0.61343887413683884 0.856862479058357 0 0.66412543161245952 0.88015090885499059 0 0.61885627562261258 0.90282959257498208 0 0 0.45000000000187229 0 0 0.40000000000166441 0 0.035463093262830522 0.42673416072819947 0 0.69999999999999984 0.69999999999999996 0 0.6916490518212759 0.75387992374886192 0 0.66427993341343905 0.73232764502436276 0 0.43846182030517877 0.64845797726506715 0 0.43323420005758778 0.6913544522562407 0 0.3977710372045391 0.65868194622830212 0 0.4367309254023824 0.92065556789053882 0 0.44003836461056539 0.88093474584252718 0 0.47401147028110507 0.91529957330468115 0 0.43846182030517877 0.64845797726506715 0 0.39743091024207589 0.6239520004230239 0 0.43545892161006339 0.61093128915313821 0 0.43846182030517877 0.64845797726506715 0 0.3977710372045391 0.65868194622830212 0 0.39743091024207589 0.6239520004230239 0 0.26429849586623999 0.19346700179430079 0 0.29336099386129338 0.15892013001050981 0 0.31255190597181792 0.19850845631528771 0 0.19670163708476801 0.31472518408333222 0 0.21049769590865089 0.26857363548218488 0 0.24432083401701241 0.3006253385567515 0 0.57724883562309992 0.92155686857100794 0 0.62065498684670595 0.95224934003983619 0 0.57382506491224949 0.9629411906298494 0 0.4409427642593301 0.35743108089689513 0 0.46655310992796922 0.39650496622958609 0 0.42161023666869668 0.39493916313643851 0 0.46666084890304671 0.57634471035397938 0 0.47095389620662098 0.61892551373708504 0 0.43545892161006339 0.61093128915313821 0 0.6879972333610942 0.43038561374960838 0 0.65178832218679827 0.45929119821019959 0 0.63912439215427275 0.41063340167983359 0 0.43698630808430822 0.080423614171545449 0 0.4320097814748517 0.037406712692169303 0 0.47040171442036788 0.044141676406503738 0 0.4367309254023824 0.92065556789053882 0 0.47135117303824892 0.95556877749289892 0 0.4308986359464303 0.96395712492906194 0 0.79680861578988083 0.92656778056766709 0 0.81486180804382891 0.96321394949790495 0 0.770759834363826 0.95919399014344442 0 0.79680861578956375 0.22656778056752541 0 0.81486180804364938 0.26321394949780091 0 0.77075983436335049 0.25919399014334171 0 0.71508799138962864 0.36622814920737751 0 0.68128176404677243 0.38629093627004979 0 0.68887083591306764 0.33632058575757479 0 0.35864735590330371 0.63903383440414463 0 0.32263089806001177 0.66003674931826484 0 0.31502927232353312 0.6134992213375432 0 0.21858834311891909 0.81980263716112767 0 0.2401283238295133 0.85648409884788523 0 0.19741632902693801 0.86755867406447229 0 0.35312867752657662 0.084946736076730367 0 0.32215584939770009 0.1218492143506909 0 0.3096713403101819 0.085471541595262421 0 0.35752321586431363 0.9185439911803448 0 0.35864759629805099 0.87963482415279515 0 0.39767323751400468 0.89584229130535065 0 0.41914690343363781 0.30688979866601612 0 0.4604742573284204 0.27846934318264788 0 0.46226845272279993 0.31901800744800313 0 0.33084213324567391 0.16272720141332131 0 0.32215584939770009 0.1218492143506909 0 0.36246644853392812 0.1399454205365751 0 0.46666084890304671 0.57634471035397938 0 0.42644501560315817 0.54603747078095544 0 0.47793794143994173 0.52940715638744962 0 0 0.60000000000138687 0 0 0.55000000000173355 0 0.034381862692950467 0.57372682250960894 0 0.77354604466818633 0.40378688774472771 0 0.74764719760526988 0.3719647154012321 0 0.78145581580700685 0.34881365920033602 0 0.34999999999912063 0 0 0.3615861437013822 0.03582617922508851 0 0.32541448401678508 0.046215317981507749 0 0.35000000000145642 1 0 0.32544832635163229 0.95485394099568932 0 0.36184234618600131 0.96443954459096326 0 0.57667858002728545 0.078486105337742612 0 0.57396793757665954 0.037011367187645222 0 0.61940220174112337 0.047251958781050582 0 0.47357141910802508 0.1873585799078378 0 0.50760557329222289 0.20700468884612061 0 0.46429753744194407 0.22870891180733599 0 0.49695729691142171 0.25014895411178018 0 0.46429753744194407 0.22870891180733599 0 0.50760557329222289 0.20700468884612061 0 0.33084213324567391 0.16272720141332131 0 0.3572130504031617 0.1874703368446563 0 0.31255190597181792 0.19850845631528771 0 0.6879972333610942 0.43038561374960838 0 0.63912439215427275 0.41063340167983359 0 0.68128176404677243 0.38629093627004979 0 0.65408113592120842 0.073941773121567966 0 0.65290632656860115 0.11434202593454081 0 0.61956000905586006 0.1043312481793135 0 0.33084213324567391 0.16272720141332131 0 0.31255190597181792 0.19850845631528771 0 0.29336099386129338 0.15892013001050981 0 0.61209567303293111 0.44669033081290321 0 0.63912439215427275 0.41063340167983359 0 0.65178832218679827 0.45929119821019959 0 0.086179601630648681 0.64647209519980475 0 0.1024350934457823 0.60772393977513839 0 0.1241190223511371 0.64391885572885044 0 0.44999999999882923 0 0 0.47040171442036788 0.044141676406503738 0 0.4320097814748517 0.037406712692169303 0 0.45000000000187229 1 0 0.4308986359464303 0.96395712492906194 0 0.47135117303824892 0.95556877749289892 0 0.74999999999934175 0 0 0.7527966693318906 0.053051678021508272 0 0.72683645290270404 0.027797073151180601 0 0.74999999999999989 0.69999999999999996 0 0.75841349681148107 0.75422312624214749 0 0.72501250972655151 0.74067302935308721 0 0.69999999999999984 0.69999999999999996 0 0.72501250972655151 0.74067302935308721 0 0.6916490518212759 0.75387992374886192 0 0.74999999999934175 0 0 0.79999999999947335 0 0 0.78393852574753176 0.032039079577822822 0 0.74999999999999989 0.69999999999999996 0 0.79999999999999982 0.69999999999999996 0 0.78578450296893509 0.73292684821144505 0 0.6405463747586706 0.63290524857395714 0 0.5991018319127801 0.62925360607495295 0 0.63065402604362242 0.59661356661633302 0 0.65481233915350323 0.35652751921065562 0 0.68887083591306764 0.33632058575757479 0 0.68128176404677243 0.38629093627004979 0 0.89999999999999991 0.29999999999999999 0 0.94999999999999996 0.29999999999999999 0 0.92012390126144183 0.33123581297173937 0 0.89999999999999991 0.69999999999999996 0 0.92057473616084773 0.66770436535372446 0 0.94999999999999996 0.69999999999999996 0 0.4367309254023824 0.92065556789053882 0 0.39767323751400468 0.89584229130535065 0 0.44003836461056539 0.88093474584252718 0 0.2185883431182947 0.18019736283949719 0 0.18124454140915969 0.18790916706335251 0 0.18652628422869419 0.14162325200928061 0 0.20050006573841939 0.53248514016039872 0 0.19604738184454831 0.47787523520405789 0 0.23975172658309729 0.49475499200540818 0 0.65507451745379841 0.92229208810758578 0 0.61885627562261258 0.90282959257498208 0 0.66412543161245952 0.88015090885499059 0 0.65394964615507722 0.22666784374016369 0 0.67933712972090698 0.25920070958121938 0 0.62657463266645097 0.26524202571255862 0 0.077693244765132896 0.56932317963405099 0 0.034381862692950467 0.57372682250960894 0 0.044576108720083309 0.53509043209532614 0 0.39801143831225599 0.16651381068160659 0 0.38831533174504851 0.2189834941785925 0 0.3572130504031617 0.1874703368446563 0 0.6499999999999998 0.69999999999999996 0 0.69999999999999984 0.69999999999999996 0 0.66427993341343905 0.73232764502436276 0 0.1215415378367805 0.72939333680004137 0 0.15332765547575641 0.71200081858233666 0 0.14335651144331049 0.75565258250209677 0 0.6405463747586706 0.63290524857395714 0 0.63065402604362242 0.59661356661633302 0 0.67529834988829951 0.61613270668143583 0 0.67323294229744413 0.57556450033612505 0 0.67529834988829951 0.61613270668143583 0 0.63065402604362242 0.59661356661633302 0 0.91750694127107502 0.36982372220068471 0 0.87430060258887643 0.34056085888204451 0 0.92012390126144183 0.33123581297173937 0 0.89999999999999991 0.29999999999999999 0 0.92012390126144183 0.33123581297173937 0 0.87430060258887643 0.34056085888204451 0 0.89999999999999991 0.69999999999999996 0 0.87712158428786946 0.65709029563313581 0 0.92057473616084773 0.66770436535372446 0 0.91750694127105259 0.63017627779935648 0 0.92057473616084773 0.66770436535372446 0 0.87712158428786946 0.65709029563313581 0 0.33122374654748771 0.57588941099433744 0 0.29110487519241501 0.56588143995431495 0 0.33190227185843768 0.52715113583864037 0 0.57484956128872922 0.66573805030881994 0 0.5498280205245758 0.6290146943450976 0 0.5991018319127801 0.62925360607495295 0 0.57412547362576272 0.58273804879550706 0 0.5991018319127801 0.62925360607495295 0 0.5498280205245758 0.6290146943450976 0 0.65408113592120842 0.073941773121567966 0 0.66369801598854572 0.036327466368102787 0 0.7010294155333181 0.056779085686491267 0 0.27474541102162192 0.11822029332053539 0 0.32215584939770009 0.1218492143506909 0 0.29336099386129338 0.15892013001050981 0 0.33084213324567391 0.16272720141332131 0 0.29336099386129338 0.15892013001050981 0 0.32215584939770009 0.1218492143506909 0 0.5 0.29999999999999999 0 0.54999999999999993 0.29999999999999999 0 0.52752007115234678 0.33170632466418198 0 0.83573492347052902 0.36590755630746369 0 0.87430060258887643 0.34056085888204451 0 0.86844634540301924 0.38530937474099819 0 0.83758014339878906 0.63222013025741819 0 0.87159648282691515 0.61285406320581504 0 0.87712158428786946 0.65709029563313581 0 0.22278230690790279 0.44824268025881547 0 0.23975172658309729 0.49475499200540818 0 0.19604738184454831 0.47787523520405789 0 1 0.49999999999950101 0 0.95631871884947484 0.51827533208233789 0 0.96228564064454991 0.48206450662049471 0 0.1650278706801647 0.38791388161335733 0 0.13773355295499351 0.42497777642586831 0 0.1117088112799664 0.38831403004970022 0 0.61209567303293111 0.44669033081290321 0 0.57975577671020095 0.46172033326338591 0 0.57744073070774993 0.41535148636609359 0 0.077693244765132896 0.56932317963405099 0 0.1154888278694548 0.56733818459978413 0 0.1024350934457823 0.60772393977513839 0 0.68697391633157634 0.84450604838764298 0 0.65005442820240822 0.82644988530054031 0 0.68024162096458085 0.79868546898116533 0 0.76901770135486491 0.84293557325473656 0 0.77094201086366854 0.79647480515688507 0 0.80041942726660109 0.81543261647703358 0 0.77144070960558853 0.14311854477243749 0 0.76878382444651716 0.097147941686331368 0 0.80076557130237269 0.1154587552654202 0 0.5 0.69999999999999996 0 0.52584555706968406 0.66664215091846768 0 0.54999999999999993 0.69999999999999996 0 0.077693244765132896 0.56932317963405099 0 0.044576108720083309 0.53509043209532614 0 0.085622222639554768 0.53333248912060549 0 0.69999999999921003 0 0 0.72683645290270404 0.027797073151180601 0 0.7010294155333181 0.056779085686491267 0 1 0 0 0.97166519676946894 0.033371144900598393 0 0.94999999999986839 0 0 1 0.69999999999999996 0 0.97166519676947294 0.73337114490064459 0 0.94999999999999996 0.69999999999999996 0 1 0.69999999999999996 0 1 0.74999999999993494 0 0.97166519676947294 0.73337114490064459 0 1 0.29999999999999999 0 0.97166519676951801 0.26662885509932011 0 1 0.24999999999987299 0 1 1 0 0.94999999999979179 1 0 0.97166519676946206 0.96662885509935492 0 1 0 0 1 0.049999999999896842 0 0.97166519676946894 0.033371144900598393 0 1 0.29999999999999999 0 0.94999999999999996 0.29999999999999999 0 0.97166519676951801 0.26662885509932011 0 1 1 0 0.97166519676946206 0.96662885509935492 0 1 0.94999999999997109 0 0 0.55000000000173355 0 0.044576108720083309 0.53509043209532614 0 0.034381862692950467 0.57372682250960894 0 0.6879972333610942 0.43038561374960838 0 0.69385896817107129 0.48377516041410151 0 0.65178832218679827 0.45929119821019959 0 0.33084213324567391 0.16272720141332131 0 0.36246644853392812 0.1399454205365751 0 0.3572130504031617 0.1874703368446563 0 0.65408113592120842 0.073941773121567966 0 0.68330259535470161 0.10038702501083881 0 0.65290632656860115 0.11434202593454081 0 0.16500388252850301 0.66612077714085194 0 0.19068556247388771 0.71028988922845504 0 0.15332765547575641 0.71200081858233666 0 0.82709327591091286 0.84937141670920724 0 0.85600844944837662 0.88483418979512773 0 0.81159157511211755 0.88795995483179491 0 0.82709327591102189 0.14937141670914489 0 0.85600844944842547 0.1848341897950983 0 0.81283102246527783 0.1881007222486438 0 0.79999999999999982 0.29999999999999999 0 0.84999999999999987 0.29999999999999999 0 0.82500000000000062 0.33010209762754811 0 0.79999999999999982 0.69999999999999996 0 0.82457059160610424 0.66831947184359608 0 0.84999999999999987 0.69999999999999996 0 0.59999999999999976 0.69999999999999996 0 0.62460753523532009 0.66851202781000296 0 0.6499999999999998 0.69999999999999996 0 0.39801143831225599 0.16651381068160659 0 0.3572130504031617 0.1874703368446563 0 0.36246644853392812 0.1399454205365751 0 0.69999999999999984 0.29999999999999999 0 0.74999999999999989 0.29999999999999999 0 0.73090396928863699 0.33699297293167962 0 0.69999999999999984 0.69999999999999996 0 0.72500000000000064 0.67022701834392062 0 0.74999999999999989 0.69999999999999996 0 0.6236733212988993 0.14864538214901801 0 0.64011864159029941 0.18789607982138171 0 0.59443395090188023 0.18455690917515069 0 0.20050006573841939 0.53248514016039872 0 0.16618607197337229 0.50652878253548905 0 0.19604738184454831 0.47787523520405789 0 0.79680861578956375 0.22656778056752541 0 0.76587607630038135 0.18880039518954719 0 0.81283102246527783 0.1881007222486438 0 0.79680861578988083 0.92656778056766709 0 0.76891166905518427 0.88835469571185499 0 0.81159157511211755 0.88795995483179491 0 0.71406021706547751 0.63292083137662503 0 0.675261390228442 0.65996937624687813 0 0.67529834988829951 0.61613270668143583 0 0.6405463747586706 0.63290524857395714 0 0.67529834988829951 0.61613270668143583 0 0.675261390228442 0.65996937624687813 0 0.19670163708476801 0.31472518408333222 0 0.168349569971391 0.28054490850913671 0 0.21049769590865089 0.26857363548218488 0 0.47357141910802508 0.1873585799078378 0 0.46429753744194407 0.22870891180733599 0 0.42905200079338551 0.19982395548231649 0 0.59814117807200873 0.23398510860739519 0 0.5794309697024993 0.27124795968204829 0 0.54248833945060504 0.2520322959927106 0 0.6541250972820879 0.49999999999999989 0 0.65178832218679827 0.45929119821019959 0 0.69385896817107129 0.48377516041410151 0 0.54999999999999993 0.29999999999999999 0 0.5794309697024993 0.27124795968204829 0 0.59999999999999976 0.29999999999999999 0 0.7750489929959945 0.66593931409600093 0 0.74994237037456724 0.62775548192980357 0 0.79884539758237771 0.62875045078114233 0 0.77293540622714185 0.59448302402785813 0 0.79884539758237771 0.62875045078114233 0 0.74994237037456724 0.62775548192980357 0 0.14332333627550789 0.14578431753966009 0 0.16141998738593399 0.10404039647458049 0 0.18652628422869419 0.14162325200928061 0 0.38083244760691543 0.38531983672244652 0 0.42161023666869668 0.39493916313643851 0 0.38707855792647411 0.42299362914874578 0 0.43249999999999988 0.43937499999999979 0 0.38707855792647411 0.42299362914874578 0 0.42161023666869668 0.39493916313643851 0 0.43846182030517877 0.64845797726506715 0 0.47095389620662098 0.61892551373708504 0 0.47913475093885149 0.66010775372412711 0 0.50715858906372158 0.63295939104129484 0 0.47913475093885149 0.66010775372412711 0 0.47095389620662098 0.61892551373708504 0 0.69999999999999984 0.69999999999999996 0 0.74999999999999989 0.69999999999999996 0 0.72501250972655151 0.74067302935308721 0 0.4089290844030305 0.58728915500154233 0 0.35765792684946668 0.6000687869219653 0 0.37272913873093971 0.56192925302619479 0 0.69999999999921003 0 0 0.74999999999934175 0 0 0.72683645290270404 0.027797073151180601 0 0.17933913398461551 0.2350063570234002 0 0.21049769590865089 0.26857363548218488 0 0.168349569971391 0.28054490850913671 0 0.14474682429600511 0.85524784522713515 0 0.10562472963403439 0.87143394428979881 0 0.1074251789111534 0.83564394292147814 0 0.14332333627550789 0.14578431753966009 0 0.106902708054812 0.16453234188234539 0 0.1053400320299198 0.12877248826361379 0 0.2236846579037573 0.67380363126050236 0 0.19914261668318661 0.62286739485272158 0 0.2459498854893499 0.63248470766216769 0 0.049999999999899652 0 0 0.053064897599215843 0.048131547304697528 0 0.02576622439977887 0.024532886826226379 0 0 0.050000000000207989 0 0.02576622439977887 0.024532886826226379 0 0.053064897599215843 0.048131547304697528 0 0.050000000000207989 1 0 0.025766224399875661 0.97546711317377799 0 0.053064897599294662 0.95186845269532028 0 0 0.94999999999979179 0 0.053064897599294662 0.95186845269532028 0 0.025766224399875661 0.97546711317377799 0 0.47357141910802508 0.1873585799078378 0 0.48466639505193998 0.1421439844745814 0 0.51729576145820033 0.1683240575987815 0 0.077693244765132896 0.56932317963405099 0 0.085622222639554768 0.53333248912060549 0 0.1154888278694548 0.56733818459978413 0 0.64753070846764316 0.77332939069435502 0 0.63221990677827677 0.73442891067859706 0 0.66427993341343905 0.73232764502436276 0 0.4656888918609538 0.78493261229743638 0 0.42609163930740518 0.80361684430568059 0 0.42676259796334498 0.76772545931379299 0 0.4089290844030305 0.58728915500154233 0 0.39743091024207589 0.6239520004230239 0 0.35765792684946668 0.6000687869219653 0 0.55306006949600994 0.20198184231352201 0 0.50760557329222289 0.20700468884612061 0 0.51729576145820033 0.1683240575987815 0 1 0.8999999999998336 0 1 0.94999999999997109 0 0.97435614836744289 0.92499999999990257 0 1 0.19999999999974799 0 1 0.24999999999987299 0 0.97435614836740092 0.22499999999981049 0 1 0.74999999999993494 0 1 0.7999999999998193 0 0.97435614836745565 0.77499999999987745 0 1 0.049999999999896842 0 1 0.099999999999753911 0 0.97435614836748241 0.074999999999825387 0 0.86411095495256451 0.42388805655111889 0 0.86844634540301924 0.38530937474099819 0 0.90594285160987287 0.4141265964174129 0 0.86956835336234861 0.571283299838105 0 0.91143117093204207 0.58709913730335972 0 0.87159648282691515 0.61285406320581504 0 0 0 0 0.02576622439977887 0.024532886826226379 0 0 0.050000000000207989 0 0 1 0 0 0.94999999999979179 0 0.025766224399875661 0.97546711317377799 0 0 1 0 0.025766224399875661 0.97546711317377799 0 0.050000000000207989 1 0 0 0 0 0.049999999999899652 0 0 0.02576622439977887 0.024532886826226379 0 0.65394964615507722 0.22666784374016369 0 0.64011864159029941 0.18789607982138171 0 0.6865991819015953 0.189116534044597 0 0.25195515620380449 0.25883339815888678 0 0.28040350263641872 0.23054717217092141 0 0.29132859388405002 0.27203693976649962 0 0.61209567303293111 0.44669033081290321 0 0.65178832218679827 0.45929119821019959 0 0.61547661924074692 0.48539576058873962 0 0.6541250972820879 0.49999999999999989 0 0.61547661924074692 0.48539576058873962 0 0.65178832218679827 0.45929119821019959 0 0.19670163708476801 0.31472518408333222 0 0.24432083401701241 0.3006253385567515 0 0.22615676742807109 0.33458786033114157 0 0.15801167086041079 0.46008690540259539 0 0.13773355295499351 0.42497777642586831 0 0.191953871957803 0.42546416763755879 0 0.1650278706801647 0.38791388161335733 0 0.191953871957803 0.42546416763755879 0 0.13773355295499351 0.42497777642586831 0 0.50715858906372158 0.63295939104129484 0 0.52584555706968406 0.66664215091846768 0 0.47913475093885149 0.66010775372412711 0 0.5 0.69999999999999996 0 0.47913475093885149 0.66010775372412711 0 0.52584555706968406 0.66664215091846768 0 0.51076801031701946 0.1202837388510348 0 0.51729576145820033 0.1683240575987815 0 0.48466639505193998 0.1421439844745814 0 0.71406021706547751 0.63292083137662503 0 0.74994237037456724 0.62775548192980357 0 0.72500000000000064 0.67022701834392062 0 0.71508799138962864 0.36622814920737751 0 0.73090396928863699 0.33699297293167962 0 0.74764719760526988 0.3719647154012321 0 0.22278230690790279 0.44824268025881547 0 0.25982634974572738 0.46097799597715272 0 0.23975172658309729 0.49475499200540818 0 0.80185942888539485 0.77452061303608133 0 0.78578450296893509 0.73292684821144505 0 0.81864958914779962 0.73589050177899629 0 0.80185942888501827 0.074520613036224564 0 0.78393852574753176 0.032039079577822822 0 0.81864958914740749 0.035890501779055867 0 0.5 0.29999999999999999 0 0.46226845272279993 0.31901800744800313 0 0.4604742573284204 0.27846934318264788 0 0.6405463747586706 0.63290524857395714 0 0.62460753523532009 0.66851202781000296 0 0.5991018319127801 0.62925360607495295 0 0.79680861578988083 0.92656778056766709 0 0.770759834363826 0.95919399014344442 0 0.75729602384198635 0.92353652857884294 0 0.79680861578956375 0.22656778056752541 0 0.77075983436335049 0.25919399014334171 0 0.75668890529066124 0.2244279804069782 0 0.65394964615507722 0.22666784374016369 0 0.69397719155551807 0.2245125647000914 0 0.67933712972090698 0.25920070958121938 0 0.81973119833356312 0.43505687159469048 0 0.84925632466077294 0.45359738909549091 0 0.81400510706333218 0.47357325943904899 0 0.83758014339878906 0.63222013025741819 0 0.82457059160610424 0.66831947184359608 0 0.79884539758237771 0.62875045078114233 0 0.25676291524611189 0.7436741304886243 0 0.2248999640082178 0.72584299459689172 0 0.26439878998046262 0.7048065392091396 0 0.91696753777131557 0.497780560203536 0 0.90900154012161016 0.53607784105648792 0 0.86907294890112186 0.52008116128001669 0 0.17933913398461551 0.2350063570234002 0 0.168349569971391 0.28054490850913671 0 0.14377654328998779 0.2442024734791064 0 0.1247745017231483 0.27198077544791172 0 0.14377654328998779 0.2442024734791064 0 0.168349569971391 0.28054490850913671 0 0.34258405725730701 0.4444034294386992 0 0.35221190152536241 0.40457127605439203 0 0.38707855792647411 0.42299362914874578 0 0.47357141910802508 0.1873585799078378 0 0.51729576145820033 0.1683240575987815 0 0.50760557329222289 0.20700468884612061 0 0.19670163708476801 0.31472518408333222 0 0.22615676742807109 0.33458786033114157 0 0.18434624290945251 0.35208838264196463 0 0.22033343844674469 0.36963382230740238 0 0.18434624290945251 0.35208838264196463 0 0.22615676742807109 0.33458786033114157 0 0.24432083401701241 0.3006253385567515 0 0.25966125648670141 0.34351016742083729 0 0.22615676742807109 0.33458786033114157 0 0.93814194660195893 0.44426664081746747 0 0.90594285160987287 0.4141265964174129 0 0.95871855522754235 0.40006508612975411 0 0.91750694127107502 0.36982372220068471 0 0.95871855522754235 0.40006508612975411 0 0.90594285160987287 0.4141265964174129 0 0.91750694127105259 0.63017627779935648 0 0.91143117093204207 0.58709913730335972 0 0.95867599106212187 0.60011091146651041 0 0.93732437411268477 0.55911392101136159 0 0.95867599106212187 0.60011091146651041 0 0.91143117093204207 0.58709913730335972 0 0.50715858906372158 0.63295939104129484 0 0.5498280205245758 0.6290146943450976 0 0.52584555706968406 0.66664215091846768 0 0.94399509803918602 0.75600490196082126 0 0.97435614836745565 0.77499999999987745 0 0.95386563387742829 0.80414874155775029 0 0.94399509803922566 0.056004901960802607 0 0.97435614836748241 0.074999999999825387 0 0.95386563387744361 0.1041487415577465 0 0.94399509803921056 0.24399509803922639 0 0.95391631417672862 0.19584263333809451 0 0.97435614836740092 0.22499999999981049 0 0.94399509803919068 0.9439950980391687 0 0.95391631417670719 0.89584263333814784 0 0.97435614836744289 0.92499999999990257 0 0.79680861578988083 0.92656778056766709 0 0.75729602384198635 0.92353652857884294 0 0.76891166905518427 0.88835469571185499 0 0.79680861578956375 0.22656778056752541 0 0.75668890529066124 0.2244279804069782 0 0.76587607630038135 0.18880039518954719 0 0.65394964615507722 0.22666784374016369 0 0.6865991819015953 0.189116534044597 0 0.69397719155551807 0.2245125647000914 0 0.38083244760691543 0.38531983672244652 0 0.38707855792647411 0.42299362914874578 0 0.35221190152536241 0.40457127605439203 0 1 0.7999999999998193 0 0.95386563387742829 0.80414874155775029 0 0.97435614836745565 0.77499999999987745 0 1 0.099999999999753911 0 0.95386563387744361 0.1041487415577465 0 0.97435614836748241 0.074999999999825387 0 1 0.8999999999998336 0 0.97435614836744289 0.92499999999990257 0 0.95391631417670719 0.89584263333814784 0 1 0.19999999999974799 0 0.97435614836740092 0.22499999999981049 0 0.95391631417672862 0.19584263333809451 0 0.84723782639812573 0.48638347960178252 0 0.81400510706333218 0.47357325943904899 0 0.84925632466077294 0.45359738909549091 0 0.54999999999999993 0.29999999999999999 0 0.54248833945060504 0.2520322959927106 0 0.5794309697024993 0.27124795968204829 0 0.94999999999999996 0.29999999999999999 0 0.95780851984364423 0.34215720972155339 0 0.92012390126144183 0.33123581297173937 0 0.94999999999999996 0.69999999999999996 0 0.92057473616084773 0.66770436535372446 0 0.9578014258160763 0.65787212321113708 0 0.15801167086041079 0.46008690540259539 0 0.113541300460994 0.46208784312094731 0 0.13773355295499351 0.42497777642586831 0 0.7250000000005199 0.94981617647078953 0 0.68015064798562208 0.95924320340003011 0 0.68987011941058407 0.92105047536677087 0 0.65507451745379841 0.92229208810758578 0 0.68987011941058407 0.92105047536677087 0 0.68015064798562208 0.95924320340003011 0 0.77846603114747959 0.49850927265137401 0 0.77972660463949339 0.45529290596363098 0 0.81400510706333218 0.47357325943904899 0 0.27866744612395528 0.38416094670951489 0 0.25966125648670141 0.34351016742083729 0 0.29644548887253103 0.34914008784168082 0 0.61209567303293111 0.44669033081290321 0 0.61547661924074692 0.48539576058873962 0 0.57975577671020095 0.46172033326338591 0 0.57611405284611883 0.50165903596042916 0 0.57975577671020095 0.46172033326338591 0 0.61547661924074692 0.48539576058873962 0 0.7250000000005199 0.89375000000045834 0 0.76891166905518427 0.88835469571185499 0 0.75729602384198635 0.92353652857884294 0 0.72500000000001008 0.19776155966387679 0 0.76587607630038135 0.18880039518954719 0 0.75668890529066124 0.2244279804069782 0 0.72500000000001008 0.19776155966387679 0 0.69397719155551807 0.2245125647000914 0 0.6865991819015953 0.189116534044597 0 0.083411279318303222 0.089699755330707398 0 0.12372429750337779 0.095814237875728972 0 0.1053400320299198 0.12877248826361379 0 0.083411279318375747 0.91030024466934134 0 0.10562472963403439 0.87143394428979881 0 0.1241151115713819 0.9045666525468371 0 0.14617343800780541 0.93808063414349496 0 0.1241151115713819 0.9045666525468371 0 0.16206583317966519 0.89685560785156404 0 0.14618258501891079 0.062070108745602003 0 0.16141998738593399 0.10404039647458049 0 0.12372429750337779 0.095814237875728972 0 0.33277555741076909 0.36432196682010132 0 0.35221190152536241 0.40457127605439203 0 0.31778888742534622 0.40581751814196781 0 0.7250000000005199 0.94981617647078953 0 0.75729602384198635 0.92353652857884294 0 0.770759834363826 0.95919399014344442 0 0.72500000000000064 0.2498161764706 0 0.75668890529066124 0.2244279804069782 0 0.77075983436335049 0.25919399014334171 0 0.72500000000000064 0.2498161764706 0 0.67933712972090698 0.25920070958121938 0 0.69397719155551807 0.2245125647000914 0 0.6236733212988993 0.14864538214901801 0 0.61956000905586006 0.1043312481793135 0 0.65290632656860115 0.11434202593454081 0 0.81973119833356312 0.43505687159469048 0 0.81400510706333218 0.47357325943904899 0 0.77972660463949339 0.45529290596363098 0 0.25676291524611189 0.7436741304886243 0 0.29904318922293632 0.74132814928635593 0 0.2792923945214143 0.77665808831789485 0 0.36575549820117997 0.31677992835137742 0 0.32752639306529541 0.32610012995269699 0 0.33402499257867951 0.28911035184473982 0 0.14332333627550789 0.14578431753966009 0 0.18652628422869419 0.14162325200928061 0 0.18124454140915969 0.18790916706335251 0 0.57724883562309992 0.92155686857100794 0 0.5832743223239254 0.88483152652961872 0 0.61885627562261258 0.90282959257498208 0 0.57667858002728545 0.078486105337742612 0 0.61956000905586006 0.1043312481793135 0 0.58516465772821369 0.11653801664834119 0 0.80185942888539485 0.77452061303608133 0 0.80041942726660109 0.81543261647703358 0 0.77094201086366854 0.79647480515688507 0 0.80185942888501827 0.074520613036224564 0 0.80076557130237269 0.1154587552654202 0 0.76878382444651716 0.097147941686331368 0 0.64753070846764316 0.77332939069435502 0 0.68024162096458085 0.79868546898116533 0 0.65005442820240822 0.82644988530054031 0 0.26429849586623999 0.19346700179430079 0 0.25557216766470708 0.15874861286892261 0 0.29336099386129338 0.15892013001050981 0 0.29348325746214782 0.31350119524708198 0 0.29644548887253103 0.34914008784168082 0 0.25966125648670141 0.34351016742083729 0 0.68391457121233579 0.14440470121196541 0 0.65290632656860115 0.11434202593454081 0 0.68330259535470161 0.10038702501083881 0 0.91750694127107502 0.36982372220068471 0 0.92012390126144183 0.33123581297173937 0 0.95780851984364423 0.34215720972155339 0 0.91750694127105259 0.63017627779935648 0 0.9578014258160763 0.65787212321113708 0 0.92057473616084773 0.66770436535372446 0 0.22033343844674469 0.36963382230740238 0 0.22615676742807109 0.33458786033114157 0 0.25966125648670141 0.34351016742083729 0 1 0.94999999999997109 0 0.97166519676946206 0.96662885509935492 0 0.97435614836744289 0.92499999999990257 0 0.94399509803919068 0.9439950980391687 0 0.97435614836744289 0.92499999999990257 0 0.97166519676946206 0.96662885509935492 0 0.94399509803921056 0.24399509803922639 0 0.97435614836740092 0.22499999999981049 0 0.97166519676951801 0.26662885509932011 0 1 0.24999999999987299 0 0.97166519676951801 0.26662885509932011 0 0.97435614836740092 0.22499999999981049 0 1 0.74999999999993494 0 0.97435614836745565 0.77499999999987745 0 0.97166519676947294 0.73337114490064459 0 1 0.049999999999896842 0 0.97435614836748241 0.074999999999825387 0 0.97166519676946894 0.033371144900598393 0 0.94399509803918602 0.75600490196082126 0 0.97166519676947294 0.73337114490064459 0 0.97435614836745565 0.77499999999987745 0 0.94399509803922566 0.056004901960802607 0 0.97166519676946894 0.033371144900598393 0 0.97435614836748241 0.074999999999825387 0 0.77846603114747959 0.49850927265137401 0 0.81400510706333218 0.47357325943904899 0 0.81441713509985358 0.51161854125224959 0 0.77354604466818633 0.40378688774472771 0 0.72622533758026719 0.40265885511101601 0 0.74764719760526988 0.3719647154012321 0 0.71508799138962864 0.36622814920737751 0 0.74764719760526988 0.3719647154012321 0 0.72622533758026719 0.40265885511101601 0 0.84723782639812573 0.48638347960178252 0 0.84925632466077294 0.45359738909549091 0 0.88594198078881503 0.46167788676578442 0 0.86411095495256451 0.42388805655111889 0 0.88594198078881503 0.46167788676578442 0 0.84925632466077294 0.45359738909549091 0 0.43846182030517877 0.64845797726506715 0 0.43545892161006339 0.61093128915313821 0 0.47095389620662098 0.61892551373708504 0 0.33123028043633618 0.77629643437932982 0 0.35642984951668422 0.80994399665655703 0 0.30857225866488791 0.81101973481716805 0 0.33403534827021109 0.84402799729020661 0 0.30857225866488791 0.81101973481716805 0 0.35642984951668422 0.80994399665655703 0 0.26429849586623999 0.19346700179430079 0 0.31255190597181792 0.19850845631528771 0 0.28040350263641872 0.23054717217092141 0 0.57724883562309992 0.92155686857100794 0 0.54783390826260769 0.89287767010860219 0 0.5832743223239254 0.88483152652961872 0 0.55899371797446828 0.85003102233514438 0 0.5832743223239254 0.88483152652961872 0 0.54783390826260769 0.89287767010860219 0 0.4089290844030305 0.58728915500154233 0 0.43545892161006339 0.61093128915313821 0 0.39743091024207589 0.6239520004230239 0 0.77293540622714185 0.59448302402785813 0 0.81723410853263523 0.59419663659258926 0 0.79884539758237771 0.62875045078114233 0 0.83758014339878906 0.63222013025741819 0 0.79884539758237771 0.62875045078114233 0 0.81723410853263523 0.59419663659258926 0 0.35864735590330371 0.63903383440414463 0 0.39743091024207589 0.6239520004230239 0 0.3977710372045391 0.65868194622830212 0 0.56202748619534593 0.15054058349222879 0 0.54979595918804436 0.1060565713905809 0 0.58516465772821369 0.11653801664834119 0 0.57667858002728545 0.078486105337742612 0 0.58516465772821369 0.11653801664834119 0 0.54979595918804436 0.1060565713905809 0 0.33122374654748771 0.57588941099433744 0 0.37272913873093971 0.56192925302619479 0 0.35765792684946668 0.6000687869219653 0 0.35864735590330371 0.63903383440414463 0 0.35765792684946668 0.6000687869219653 0 0.39743091024207589 0.6239520004230239 0 0.71508799138962864 0.36622814920737751 0 0.68887083591306764 0.33632058575757479 0 0.73090396928863699 0.33699297293167962 0 0.29348325746214782 0.31350119524708198 0 0.32752639306529541 0.32610012995269699 0 0.29644548887253103 0.34914008784168082 0 0.33277555741076909 0.36432196682010132 0 0.29644548887253103 0.34914008784168082 0 0.32752639306529541 0.32610012995269699 0 0.34258405725730701 0.4444034294386992 0 0.31778888742534622 0.40581751814196781 0 0.35221190152536241 0.40457127605439203 0 0.79999999999999982 0.69999999999999996 0 0.81864958914779962 0.73589050177899629 0 0.78578450296893509 0.73292684821144505 0 0.79999999999947335 0 0 0.81864958914740749 0.035890501779055867 0 0.78393852574753176 0.032039079577822822 0 0.27474541102162192 0.11822029332053539 0 0.29336099386129338 0.15892013001050981 0 0.25557216766470708 0.15874861286892261 0 0 0.45000000000187229 0 0.035463093262830522 0.42673416072819947 0 0.033550201249889847 0.46247875832467239 0 0.6499999999999998 0.69999999999999996 0 0.66427993341343905 0.73232764502436276 0 0.63221990677827677 0.73442891067859706 0 0.84723782639812573 0.48638347960178252 0 0.81441713509985358 0.51161854125224959 0 0.81400510706333218 0.47357325943904899 0 0.26104540868854792 0.81401944968719064 0 0.30857225866488791 0.81101973481716805 0 0.29209212897034281 0.84715728365233667 0 0.33403534827021109 0.84402799729020661 0 0.29209212897034281 0.84715728365233667 0 0.30857225866488791 0.81101973481716805 0 0.69999999999999984 0.29999999999999999 0 0.73090396928863699 0.33699297293167962 0 0.68887083591306764 0.33632058575757479 0 
</DataArray>
</Points>
<Cells>
<DataArray type="UInt32" Name="connectivity" format="ascii">
0 1 2 3 4 5 6 7 8 9 10 11 12 13 14 15 16 17 18 19 20 21 22 23 24 25 26 27 28 29 30 31 32 33 34 35 36 37 38 39 40 41 42 43 44 45 46 47 48 49 50 51 52 53 54 55 56 57 58 59 60 61 62 63 64 65 66 67 68 69 70 71 72 73 74 75 76 77 78 79 80 81 82 83 84 85 86 87 88 89 90 91 92 93 94 95 96 97 98 99 100 101 102 103 104 105 106 107 108 109 110 111 112 113 114 115 116 117 118 119 120 121 122 123 124 125 126 127 128 129 130 131 132 133 134 135 136 137 138 139 140 141 142 143 144 145 146 147 148 149 150 151 152 153 154 155 156 157 158 159 160 161 162 163 164 165 166 167 168 169 170 171 172 173 174 175 176 177 178 179 180 181 182 183 184 185 186 187 188 189 190 191 192 193 194 195 196 197 198 199 200 201 202 203 204 205 206 207 208 209 210 211 212 213 214 215 216 217 218 219 220 221 222 223 224 225 226 227 228 229 230 231 232 233 234 235 236 237 238 239 240 241 242 243 244 245 246 247 248 249 250 251 252 253 254 255 256 257 258 259 260 261 262 263 264 265 266 267 268 269 270 271 272 273 274 275 276 277 278 279 280 281 282 283 284 285 286 287 288 289 290 291 292 293 294 295 296 297 298 299 300 301 302 303 304 305 306 307 308 309 310 311 312 313 314 315 316 317 318 319 320 321 322 323 324 325 326 327 328 329 330 331 332 333 334 335 336 337 338 339 340 341 342 343 344 345 346 347 348 349 350 351 352 353 354 355 356 357 358 359 360 361 362 363 364 365 366 367 368 369 370 371 372 373 374 375 376 377 378 379 380 381 382 383 384 385 386 387 388 389 390 391 392 393 394 395 396 397 398 399 400 401 402 403 404 405 406 407 408 409 410 411 412 413 414 415 416 417 418 419 420 421 422 423 424 425 426 427 428 429 430 431 432 433 434 435 436 437 438 439 440 441 442 443 444 445 446 447 448 449 450 451 452 453 454 455 456 457 458 459 460 461 462 463 464 465 466 467 468 469 470 471 472 473 474 475 476 477 478 479 480 481 482 483 484 485 486 487 488 489 490 491 492 493 494 495 496 497 498 499 500 501 502 503 504 505 506 507 508 509 510 511 512 513 514 515 516 517 518 519 520 521 522 523 524 525 526 527 528 529 530 531 532 533 534 535 536 537 538 539 540 541 542 543 544 545 546 547 548 549 550 551 552 553 554 555 556 557 558 559 560 561 562 563 564 565 566 567 568 569 570 571 572 573 574 575 576 577 578 579 580 581 582 583 584 585 586 587 588 589 590 591 592 593 594 595 596 597 598 599 600 601 602 603 604 605 606 607 608 609 610 611 612 613 614 615 616 617 618 619 620 621 622 623 624 625 626 627 628 629 630 631 632 633 634 635 636 637 638 639 640 641 642 643 644 645 646 647 648 649 650 651 652 653 654 655 656 657 658 659 660 661 662 663 664 665 666 667 668 669 670 671 672 673 674 675 676 677 678 679 680 681 682 683 684 685 686 687 688 689 690 691 692 693 694 695 696 697 698 699 700 701 702 703 704 705 706 707 708 709 710 711 712 713 714 715 716 717 718 719 720 721 722 723 724 725 726 727 728 729 730 731 732 733 734 735 736 737 738 739 740 741 742 743 744 745 746 747 748 749 750 751 752 753 754 755 756 757 758 759 760 761 762 763 764 765 766 767 768 769 770 771 772 773 774 775 776 777 778 779 780 781 782 783 784 785 786 787 788 789 790 791 792 793 794 795 796 797 798 799 800 801 802 803 804 805 806 807 808 809 810 811 812 813 814 815 816 817 818 819 820 821 822 823 824 825 826 827 828 829 830 831 832 833 834 835 836 837 838 839 840 841 842 843 844 845 846 847 848 849 850 851 852 853 854 855 856 857 858 859 860 861 862 863 864 865 866 867 868 869 870 871 872 873 874 875 876 877 878 879 880 881 882 883 884 885 886 887 888 889 890 891 892 893 894 895 896 897 898 899 900 901 902 903 904 905 906 907 908 909 910 911 912 913 914 915 916 917 918 919 920 921 922 923 924 925 926 927 928 929 930 931 932 933 934 935 936 937 938 939 940 941 942 943 944 945 946 947 948 949 950 951 952 953 954 955 956 957 958 959 960 961 962 963 964 965 966 967 968 969 970 971 972 973 974 975 976 977 978 979 980 981 982 983 984 985 986 987 988 989 990 991 992 993 994 995 996 997 998 999 1000 1001 1002 1003 1004 1005 1006 1007 1008 1009 1010 1011 1012 1013 1014 1015 1016 1017 1018 1019 1020 1021 1022 1023 1024 1025 1026 1027 1028 1029 1030 1031 1032 1033 1034 1035 1036 1037 1038 1039 1040 1041 1042 1043 1044 1045 1046 1047 1048 1049 1050 1051 1052 1053 1054 1055 1056 1057 1058 1059 1060 1061 1062 1063 1064 1065 1066 1067 1068 1069 1070 1071 1072 1073 1074 1075 1076 1077 1078 1079 1080 1081 1082 1083 1084 1085 1086 1087 1088 1089 1090 1091 1092 1093 1094 1095 1096 1097 1098 1099 1100 1101 1102 1103 1104 1105 1106 1107 1108 1109 1110 1111 1112 1113 1114 1115 1116 1117 1118 1119 1120 1121 1122 1123 1124 1125 1126 1127 1128 1129 1130 1131 1132 1133 1134 1135 1136 1137 1138 1139 1140 1141 1142 1143 1144 1145 1146 1147 1148 1149 1150 1151 1152 1153 1154 1155 1156 1157 1158 1159 1160 1161 1162 1163 1164 1165 1166 1167 1168 1169 1170 1171 1172 1173 1174 1175 1176 1177 1178 1179 1180 1181 1182 1183 1184 1185 1186 1187 1188 1189 1190 1191 1192 1193 1194 1195 1196 1197 1198 1199 1200 1201 1202 1203 1204 1205 1206 1207 1208 1209 1210 1211 1212 1213 1214 1215 1216 1217 1218 1219 1220 1221 1222 1223 1224 1225 1226 1227 1228 1229 1230 1231 1232 1233 1234 1235 1236 1237 1238 1239 1240 1241 1242 1243 1244 1245 1246 1247 1248 1249 1250 1251 1252 1253 1254 1255 1256 1257 1258 1259 1260 1261 1262 1263 1264 1265 1266 1267 1268 1269 1270 1271 1272 1273 1274 1275 1276 1277 1278 1279 1280 1281 1282 1283 1284 1285 1286 1287 1288 1289 1290 1291 1292 1293 1294 1295 1296 1297 1298 1299 1300 1301 1302 1303 1304 1305 1306 1307 1308 1309 1310 1311 1312 1313 1314 1315 1316 1317 1318 1319 1320 1321 1322 1323 1324 1325 1326 1327 1328 1329 1330 1331 1332 1333 1334 1335 1336 1337 1338 1339 1340 1341 1342 1343 1344 1345 1346 1347 1348 1349 1350 1351 1352 1353 1354 1355 1356 1357 1358 1359 1360 1361 1362 1363 1364 1365 1366 1367 1368 1369 1370 1371 1372 1373 1374 1375 1376 1377 1378 1379 1380 1381 1382 1383 1384 1385 1386 1387 1388 1389 1390 1391 1392 1393 1394 1395 1396 1397 1398 1399 1400 1401 1402 1403 1404 1405 1406 1407 1408 1409 1410 1411 1412 1413 1414 1415 1416 1417 1418 1419 1420 1421 1422 1423 1424 1425 1426 1427 1428 1429 1430 1431 1432 1433 1434 1435 1436 1437 1438 1439 1440 1441 1442 1443 1444 1445 1446 1447 1448 1449 1450 1451 1452 1453 1454 1455 1456 1457 1458 1459 1460 1461 1462 1463 1464 1465 1466 1467 1468 1469 1470 1471 1472 1473 1474 1475 1476 1477 1478 1479 1480 1481 1482 1483 1484 1485 1486 1487 1488 1489 1490 1491 1492 1493 1494 1495 1496 1497 1498 1499 1500 1501 1502 1503 1504 1505 1506 1507 1508 1509 1510 1511 1512 1513 1514 1515 1516 1517 1518 1519 1520 1521 1522 1523 1524 1525 1526 1527 1528 1529 1530 1531 1532 1533 1534 1535 1536 1537 1538 1539 1540 1541 1542 1543 1544 1545 1546 1547 1548 1549 1550 1551 1552 1553 1554 1555 1556 1557 1558 1559 1560 1561 1562 1563 1564 1565 1566 1567 1568 1569 1570 1571 1572 1573 1574 1575 1576 1577 1578 1579 1580 1581 1582 1583 1584 1585 1586 1587 1588 1589 1590 1591 1592 1593 1594 1595 1596 1597 1598 1599 1600 1601 1602 1603 1604 1605 1606 1607 1608 1609 1610 1611 1612 1613 1614 1615 1616 1617 1618 1619 1620 1621 1622 1623 1624 1625 1626 1627 1628 1629 1630 1631 1632 1633 1634 1635 1636 1637 1638 1639 1640 1641 1642 1643 1644 1645 1646 1647 1648 1649 1650 1651 1652 1653 1654 1655 1656 1657 1658 1659 1660 1661 1662 1663 1664 1665 1666 1667 1668 1669 1670 1671 1672 1673 1674 1675 1676 1677 1678 1679 1680 1681 1682 1683 1684 1685 1686 1687 1688 1689 1690 1691 1692 1693 1694 1695 1696 1697 1698 1699 1700 1701 1702 1703 1704 1705 1706 1707 1708 1709 1710 1711 1712 1713 1714 1715 1716 1717 1718 1719 1720 1721 1722 1723 1724 1725 1726 1727 1728 1729 1730 1731 1732 1733 1734 1735 1736 1737 1738 1739 1740 1741 1742 1743 1744 1745 1746 1747 1748 1749 1750 1751 1752 1753 1754 1755 1756 1757 1758 1759 1760 1761 1762 1763 1764 1765 1766 1767 1768 1769 1770 1771 1772 1773 1774 1775 1776 1777 1778 1779 1780 1781 1782 1783 1784 1785 1786 1787 1788 1789 1790 1791 1792 1793 1794 1795 1796 1797 1798 1799 1800 1801 1802 1803 1804 1805 1806 1807 1808 1809 1810 1811 1812 1813 1814 1815 1816 1817 1818 1819 1820 1821 1822 1823 1824 1825 1826 1827 1828 1829 1830 1831 1832 1833 1834 1835 1836 1837 1838 1839 1840 1841 1842 1843 1844 1845 1846 1847 1848 1849 1850 1851 1852 1853 1854 1855 1856 1857 1858 1859 1860 1861 1862 1863 1864 1865 1866 1867 1868 1869 1870 1871 1872 1873 1874 1875 1876 1877 1878 1879 1880 1881 1882 1883 1884 1885 1886 1887 1888 1889 1890 1891 1892 1893 1894 1895 1896 1897 1898 1899 1900 1901 1902 1903 1904 1905 1906 1907 1908 1909 1910 1911 1912 1913 1914 1915 1916 1917 1918 1919 1920 1921 1922 1923 1924 1925 1926 1927 1928 1929 1930 1931 1932 1933 1934 1935 1936 1937 1938 1939 1940 1941 1942 1943 1944 1945 1946 1947 1948 1949 1950 1951 1952 1953 1954 1955 1956 1957 1958 1959 1960 1961 1962 1963 1964 1965 1966 1967 1968 1969 1970 1971 1972 1973 1974 1975 1976 1977 1978 1979 1980 1981 1982 1983 1984 1985 1986 1987 1988 1989 1990 1991 1992 1993 1994 1995 1996 1997 1998 1999 2000 2001 2002 2003 2004 2005 2006 2007 2008 2009 2010 2011 2012 2013 2014 2015 2016 2017 2018 2019 2020 2021 2022 2023 2024 2025 2026 2027 2028 2029 2030 2031 2032 2033 2034 2035 2036 2037 2038 2039 2040 2041 2042 2043 2044 2045 2046 2047 2048 2049 2050 2051 2052 2053 2054 2055 2056 2057 2058 2059 2060 2061 2062 2063 2064 2065 2066 2067 2068 2069 2070 2071 2072 2073 2074 2075 2076 2077 2078 2079 2080 2081 2082 2083 2084 2085 2086 2087 2088 2089 2090 2091 2092 2093 2094 2095 2096 2097 2098 2099 2100 2101 2102 2103 2104 2105 2106 2107 2108 2109 2110 2111 2112 2113 2114 2115 2116 2117 2118 2119 2120 2121 2122 2123 2124 2125 2126 2127 2128 2129 2130 2131 2132 2133 2134 2135 2136 2137 2138 2139 2140 2141 2142 2143 2144 2145 2146 2147 2148 2149 2150 2151 2152 2153 2154 2155 2156 2157 2158 2159 2160 2161 2162 2163 2164 2165 2166 2167 2168 2169 2170 2171 2172 2173 2174 2175 2176 2177 2178 2179 2180 2181 2182 2183 2184 2185 2186 2187 2188 2189 2190 2191 2192 2193 2194 2195 2196 2197 2198 2199 2200 2201 2202 2203 2204 2205 2206 2207 2208 2209 2210 2211 2212 2213 2214 2215 2216 2217 2218 2219 2220 2221 2222 2223 2224 2225 2226 2227 2228 2229 2230 2231 2232 2233 2234 2235 2236 2237 2238 2239 2240 2241 2242 2243 2244 2245 2246 2247 2248 2249 2250 2251 2252 2253 2254 2255 2256 2257 2258 2259 2260 2261 2262 2263 2264 2265 2266 2267 2268 2269 2270 2271 2272 2273 2274 2275 2276 2277 2278 2279 2280 2281 2282 2283 2284 2285 2286 2287 2288 2289 2290 2291 2292 2293 2294 2295 2296 2297 2298 2299 2300 2301 2302 2303 2304 2305 2306 2307 2308 2309 2310 2311 2312 2313 2314 2315 2316 2317 2318 2319 2320 2321 2322 2323 2324 2325 2326 2327 2328 2329 2330 2331 2332 2333 2334 2335 2336 2337 2338 2339 2340 2341 2342 2343 2344 2345 2346 2347 2348 2349 2350 2351 2352 2353 2354 2355 2356 2357 2358 2359 2360 2361 2362 2363 2364 2365 2366 2367 2368 2369 2370 2371 2372 2373 2374 2375 2376 2377 2378 2379 2380 2381 2382 2383 2384 2385 2386 2387 2388 2389 2390 2391 2392 2393 2394 2395 2396 2397 2398 2399 2400 2401 2402 2403 2404 2405 2406 2407 2408 2409 2410 2411 2412 2413 2414 2415 2416 2417 2418 2419 2420 2421 2422 2423 2424 2425 2426 2427 2428 2429 2430 2431 2432 2433 2434 2435 2436 2437 2438 2439 2440 2441 2442 2443 2444 2445 2446 2447 2448 2449 2450 2451 2452 2453 2454 2455 2456 2457 2458 2459 2460 2461 2462 2463 2464 2465 2466 2467 2468 2469 2470 2471 2472 2473 2474 2475 2476 2477 2478 2479 2480 2481 2482 2483 2484 2485 2486 2487 2488 2489 2490 2491 2492 2493 2494 2495 2496 2497 2498 2499 2500 2501 2502 2503 2504 2505 2506 2507 2508 2509 2510 2511 2512 2513 2514 2515 2516 2517 2518 2519 2520 2521 2522 2523 2524 2525 2526 2527 2528 2529 2530 2531 2532 2533 2534 2535 2536 2537 2538 2539 2540 2541 2542 2543 2544 2545 2546 2547 2548 2549 2550 2551 2552 2553 2554 2555 2556 2557 2558 2559 2560 2561 2562 2563 2564 2565 2566 2567 2568 2569 2570 2571 2572 2573 2574 2575 2576 2577 2578 2579 2580 2581 2582 2583 2584 2585 2586 2587 2588 2589 2590 2591 2592 2593 2594 2595 2596 2597 2598 2599 2600 2601 2602 2603 2604 2605 2606 2607 2608 2609 2610 2611 2612 2613 2614 2615 2616 2617 2618 2619 2620 2621 2622 2623 2624 2625 2626 2627 2628 2629 2630 2631 2632 2633 2634 2635 2636 2637 2638 2639 2640 2641 2642 2643 2644 2645 2646 2647 2648 2649 2650 2651 2652 2653 2654 2655 2656 2657 2658 2659 2660 2661 2662 2663 2664 2665 2666 2667 2668 2669 2670 2671 2672 2673 2674 2675 2676 2677 2678 2679 2680 2681 2682 2683 2684 2685 2686 2687 2688 2689 2690 2691 2692 2693 2694 2695 2696 2697 2698 2699 2700 2701 2702 2703 2704 2705 2706 2707 2708 2709 2710 2711 2712 2713 2714 2715 2716 2717 2718 2719 2720 2721 2722 2723 2724 2725 2726 2727 2728 2729 2730 2731 2732 2733 2734 2735 2736 2737 2738 2739 2740 2741 2742 2743 2744 2745 2746 2747 2748 2749 2750 2751 2752 2753 2754 2755 2756 2757 2758 2759 2760 2761 2762 2763 2764 2765 2766 2767 2768 2769 2770 2771 2772 2773 2774 2775 2776 2777 2778 2779 2780 2781 2782 2783 2784 2785 2786 2787 2788 2789 2790 2791 2792 2793 2794 2795 2796 2797 2798 2799 2800 2801 2802 2803 2804 2805 2806 2807 2808 2809 2810 2811 2812 2813 2814 2815 2816 2817 2818 2819 2820 2821 2822 2823 2824 2825 2826 2827 2828 2829 2830 2831 2832 2833 2834 2835 2836 2837 2838 2839 2840 2841 2842 2843 2844 2845 2846 2847 2848 2849 2850 2851 2852 2853 2854 2855 2856 2857 2858 2859 2860 2861 2862 2863 2864 2865 2866 2867 2868 2869 2870 2871 2872 2873 2874 2875 2876 2877 2878 2879 2880 2881 2882 2883 2884 2885 2886 2887 2888 2889 2890 2891 2892 2893 2894 2895 2896 2897 2898 2899 2900 2901 2902 2903 2904 2905 2906 2907 2908 2909 2910 2911 2912 2913 2914 2915 2916 2917 2918 2919 2920 2921 2922 2923 2924 2925 2926 2927 2928 2929 2930 2931 2932 2933 2934 2935 2936 2937 2938 2939 2940 2941 2942 2943 2944 2945 2946 2947 2948 2949 2950 2951 2952 2953 2954 2955 2956 2957 2958 2959 2960 2961 2962 2963 2964 2965 2966 2967 2968 2969 2970 2971 2972 2973 2974 2975 2976 2977 2978 2979 2980 2981 2982 2983 2984 2985 2986 2987 2988 2989 2990 2991 2992 2993 2994 2995 2996 2997 2998 2999 3000 3001 3002 3003 3004 3005 3006 3007 3008 3009 3010 3011 3012 3013 3014 3015 3016 3017 3018 3019 3020 3021 3022 3023 3024 3025 3026 3027 3028 3029 3030 3031 3032 3033 3034 3035 3036 3037 3038 3039 3040 3041 3042 3043 3044 3045 3046 3047 3048 3049 3050 3051 3052 3053 3054 3055 3056 3057 3058 3059 3060 3061 3062 3063 3064 3065 3066 3067 3068 3069 3070 3071 3072 3073 3074 3075 3076 3077 3078 3079 3080 3081 3082 3083 3084 3085 3086 3087 3088 3089 3090 3091 3092 3093 3094 3095 3096 3097 3098 3099 3100 3101 3102 3103 3104 3105 3106 3107 3108 3109 3110 3111 3112 3113 3114 3115 3116 3117 3118 3119 3120 3121 3122 3123 3124 3125 3126 3127 3128 3129 3130 3131 3132 3133 3134 3135 3136 3137 3138 3139 3140 3141 
</DataArray>
<DataArray type="UInt32" Name="offsets" format="ascii">
2 4 6 8 10 12 14 16 18 20 22 24 26 28 30 32 34 36 38 40 43 46 49 52 55 58 61 64 67 70 73 76 79 82 85 88 91 94 97 100 103 106 109 112 115 118 121 124 127 130 133 136 139 142 145 148 151 154 157 160 163 166 169 172 175 178 181 184 187 190 193 196 199 202 205 208 211 214 217 220 223 226 229 232 235 238 241 244 247 250 253 256 259 262 265 268 271 274 277 280 283 286 289 292 295 298 301 304 307 310 313 316 319 322 325 328 331 334 337 340 343 346 349 352 355 358 361 364 367 370 373 376 379 382 385 388 391 394 397 400 403 406 409 412 415 418 421 424 427 430 433 436 439 442 445 448 451 454 457 460 463 466 469 472 475 478 481 484 487 490 493 496 499 502 505 508 511 514 517 520 523 526 529 532 535 538 541 544 547 550 553 556 559 562 565 568 571 574 577 580 583 586 589 592 595 598 601 604 607 610 613 616 619 622 625 628 631 634 637 640 643 646 649 652 655 658 661 664 667 670 673 676 679 682 685 688 691 694 697 700 703 706 709 712 715 718 721 724 727 730 733 736 739 742 745 748 751 754 757 760 763 766 769 772 775 778 781 784 787 790 793 796 799 802 805 808 811 814 817 820 823 826 829 832 835 838 841 844 847 850 853 856 859 862 865 868 871 874 877 880 883 886 889 892 895 898 901 904 907 910 913 916 919 922 925 928 931 934 937 940 943 946 949 952 955 958 961 964 967 970 973 976 979 982 985 988 991 994 997 1000 1003 1006 1009 1012 1015 1018 1021 1024 1027 1030 1033 1036 1039 1042 1045 1048 1051 1054 1057 1060 1063 1066 1069 1072 1075 1078 1081 1084 1087 1090 1093 1096 1099 1102 1105 1108 1111 1114 1117 1120 1123 1126 1129 1132 1135 1138 1141 1144 1147 1150 1153 1156 1159 1162 1165 1168 1171 1174 1177 1180 1183 1186 1189 1192 1195 1198 1201 1204 1207 1210 1213 1216 1219 1222 1225 1228 1231 1234 1237 1240 1243 1246 1249 1252 1255 1258 1261 1264 1267 1270 1273 1276 1279 1282 1285 1288 1291 1294 1297 1300 1303 1306 1309 1312 1315 1318 1321 1324 1327 1330 1333 1336 1339 1342 1345 1348 1351 1354 1357 1360 1363 1366 1369 1372 1375 1378 1381 1384 1387 1390 1393 1396 1399 1402 1405 1408 1411 1414 1417 1420 1423 1426 1429 1432 1435 1438 1441 1444 1447 1450 1453 1456 1459 1462 1465 1468 1471 1474 1477 1480 1483 1486 1489 1492 1495 1498 1501 1504 1507 1510 1513 1516 1519 1522 1525 1528 1531 1534 1537 1540 1543 1546 1549 1552 1555 1558 1561 1564 1567 1570 1573 1576 1579 1582 1585 1588 1591 1594 1597 1600 1603 1606 1609 1612 1615 1618 1621 1624 1627 1630 1633 1636 1639 1642 1645 1648 1651 1654 1657 1660 1663 1666 1669 1672 1675 1678 1681 1684 1687 1690 1693 1696 1699 1702 1705 1708 1711 1714 1717 1720 1723 1726 1729 1732 1735 1738 1741 1744 1747 1750 1753 1756 1759 1762 1765 1768 1771 1774 1777 1780 1783 1786 1789 1792 1795 1798 1801 1804 1807 1810 1813 1816 1819 1822 1825 1828 1831 1834 1837 1840 1843 1846 1849 1852 1855 1858 1861 1864 1867 1870 1873 1876 1879 1882 1885 1888 1891 1894 1897 1900 1903 1906 1909 1912 1915 1918 1921 1924 1927 1930 1933 1936 1939 1942 1945 1948 1951 1954 1957 1960 1963 1966 1969 1972 1975 1978 1981 1984 1987 1990 1993 1996 1999 2002 2005 2008 2011 2014 2017 2020 2023 2026 2029 2032 2035 2038 2041 2044 2047 2050 2053 2056 2059 2062 2065 2068 2071 2074 2077 2080 2083 2086 2089 2092 2095 2098 2101 2104 2107 2110 2113 2116 2119 2122 2125 2128 2131 2134 2137 2140 2143 2146 2149 2152 2155 2158 2161 2164 2167 2170 2173 2176 2179 2182 2185 2188 2191 2194 2197 2200 2203 2206 2209 2212 2215 2218 2221 2224 2227 2230 2233 2236 2239 2242 2245 2248 2251 2254 2257 2260 2263 2266 2269 2272 2275 2278 2281 2284 2287 2290 2293 2296 2299 2302 2305 2308 2311 2314 2317 2320 2323 2326 2329 2332 2335 2338 2341 2344 2347 2350 2353 2356 2359 2362 2365 2368 2371 2374 2377 2380 2383 2386 2389 2392 2395 2398 2401 2404 2407 2410 2413 2416 2419 2422 2425 2428 2431 2434 2437 2440 2443 2446 2449 2452 2455 2458 2461 2464 2467 2470 2473 2476 2479 2482 2485 2488 2491 2494 2497 2500 2503 2506 2509 2512 2515 2518 2521 2524 2527 2530 2533 2536 2539 2542 2545 2548 2551 2554 2557 2560 2563 2566 2569 2572 2575 2578 2581 2584 2587 2590 2593 2596 2599 2602 2605 2608 2611 2614 2617 2620 2623 2626 2629 2632 2635 2638 2641 2644 2647 2650 2653 2656 2659 2662 2665 2668 2671 2674 2677 2680 2683 2686 2689 2692 2695 2698 2701 2704 2707 2710 2713 2716 2719 2722 2725 2728 2731 2734 2737 2740 2743 2746 2749 2752 2755 2758 2761 2764 2767 2770 2773 2776 2779 2782 2785 2788 2791 2794 2797 2800 2803 2806 2809 2812 2815 2818 2821 2824 2827 2830 2833 2836 2839 2842 2845 2848 2851 2854 2857 2860 2863 2866 2869 2872 2875 2878 2881 2884 2887 2890 2893 2896 2899 2902 2905 2908 2911 2914 2917 2920 2923 2926 2929 2932 2935 2938 2941 2944 2947 2950 2953 2956 2959 2962 2965 2968 2971 2974 2977 2980 2983 2986 2989 2992 2995 2998 3001 3004 3007 3010 3013 3016 3019 3022 3025 3028 3031 3034 3037 3040 3043 3046 3049 3052 3055 3058 3061 3064 3067 3070 3073 3076 3079 3082 3085 3088 3091 3094 3097 3100 3103 3106 3109 3112 3115 3118 3121 3124 3127 3130 3133 3136 3139 3142 
</DataArray>
<DataArray type="UInt32" Name="types" format="ascii">
3 3 3 3 3 3 3 3 3 3 3 3 3 3 3 3 3 3 3 3 5 5 5 5 5 5 5 5 5 5 5 5 5 5 5 5 5 5 5 5 5 5 5 5 5 5 5 5 5 5 5 5 5 5 5 5 5 5 5 5 5 5 5 5 5 5 5 5 5 5 5 5 5 5 5 5 5 5 5 5 5 5 5 5 5 5 5 5 5 5 5 5 5 5 5 5 5 5 5 5 5 5 5 5 5 5 5 5 5 5 5 5 5 5 5 5 5 5 5 5 5 5 5 5 5 5 5 5 5 5 5 5 5 5 5 5 5 5 5 5 5 5 5 5 5 5 5 5 5 5 5 5 5 5 5 5 5 5 5 5 5 5 5 5 5 5 5 5 5 5 5 5 5 5 5 5 5 5 5 5 5 5 5 5 5 5 5 5 5 5 5 5 5 5 5 5 5 5 5 5 5 5 5 5 5 5 5 5 5 5 5 5 5 5 5 5 5 5 5 5 5 5 5 5 5 5 5 5 5 5 5 5 5 5 5 5 5 5 5 5 5 5 5 5 5 5 5 5 5 5 5 5 5 5 5 5 5 5 5 5 5 5 5 5 5 5 5 5 5 5 5 5 5 5 5 5 5 5 5 5 5 5 5 5 5 5 5 5 5 5 5 5 5 5 5 5 5 5 5 5 5 5 5 5 5 5 5 5 5 5 5 5 5 5 5 5 5 5 5 5 5 5 5 5 5 5 5 5 5 5 5 5 5 5 5 5 5 5 5 5 5 5 5 5 5 5 5 5 5 5 5 5 5 5 5 5 5 5 5 5 5 5 5 5 5 5 5 5 5 5 5 5 5 5 5 5 5 5 5 5 5 5 5 5 5 5 5 5 5 5 5 5 5 5 5 5 5 5 5 5 5 5 5 5 5 5 5 5 5 5 5 5 5 5 5 5 5 5 5 5 5 5 5 5 5 5 5 5 5 5 5 5 5 5 5 5 5 5 5 5 5 5 5 5 5 5 5 5 5 5 5 5 5 5 5 5 5 5 5 5 5 5 5 5 5 5 5 5 5 5 5 5 5 5 5 5 5 5 5 5 5 5 5 5 5 5 5 5 5 5 5 5 5 5 5 5 5 5 5 5 5 5 5 5 5 5 5 5 5 5 5 5 5 5 5 5 5 5 5 5 5 5 5 5 5 5 5 5 5 5 5 5 5 5 5 5 5 5 5 5 5 5 5 5 5 5 5 5 5 5 5 5 5 5 5 5 5 5 5 5 5 5 5 5 5 5 5 5 5 5 5 5 5 5 5 5 5 5 5 5 5 5 5 5 5 5 5 5 5 5 5 5 5 5 5 5 5 5 5 5 5 5 5 5 5 5 5 5 5 5 5 5 5 5 5 5 5 5 5 5 5 5 5 5 5 5 5 5 5 5 5 5 5 5 5 5 5 5 5 5 5 5 5 5 5 5 5 5 5 5 5 5 5 5 5 5 5 5 5 5 5 5 5 5 5 5 5 5 5 5 5 5 5 5 5 5 5 5 5 5 5 5 5 5 5 5 5 5 5 5 5 5 5 5 5 5 5 5 5 5 5 5 5 5 5 5 5 5 5 5 5 5 5 5 5 5 5 5 5 5 5 5 5 5 5 5 5 5 5 5 5 5 5 5 5 5 5 5 5 5 5 5 5 5 5 5 5 5 5 5 5 5 5 5 5 5 5 5 5 5 5 5 5 5 5 5 5 5 5 5 5 5 5 5 5 5 5 5 5 5 5 5 5 5 5 5 5 5 5 5 5 5 5 5 5 5 5 5 5 5 5 5 5 5 5 5 5 5 5 5 5 5 5 5 5 5 5 5 5 5 5 5 5 5 5 5 5 5 5 5 5 5 5 5 5 5 5 5 5 5 5 5 5 5 5 5 5 5 5 5 5 5 5 5 5 5 5 5 5 5 5 5 5 5 5 5 5 5 5 5 5 5 5 5 5 5 5 5 5 5 5 5 5 5 5 5 5 5 5 5 5 5 5 5 5 5 5 5 5 5 5 5 5 5 5 5 5 5 5 5 5 5 5 5 5 5 5 5 5 5 5 5 5 5 5 5 5 5 5 5 5 5 5 5 5 5 5 5 5 5 5 5 5 5 5 5 5 5 5 5 5 5 5 5 5 5 5 5 5 5 5 5 5 5 5 5 5 5 5 5 5 5 5 5 5 5 5 5 5 5 5 5 5 5 5 5 5 5 5 5 5 5 5 5 5 5 5 5 5 5 5 5 5 5 5 5 5 5 5 5 5 5 5 5 5 5 5 5 5 5 5 5 5 5 5 5 5 5 5 5 5 5 5 5 5 5 5 5 5 5 5 5 5 5 5 5 5 5 5 5 5 5 5 5 
</DataArray>
</Cells>
<PointData Scalars="" Vectors="displacement," Tensors="">
<DataArray type="Float64" Name="displacement" NumberOfComponents="3" format="ascii">
-2.4445155052473913e-05 -2.2444991957546638e-05 0 -2.6350842208080183e-05 -2.9859588601373143e-05 0 -2.6350842208080183e-05 -2.9859588601373143e-05 0 -2.8578512634416778e-05 -3.8231833748964962e-05 0 -2.8578512634416778e-05 -3.8231833748964962e-05 0 -3.1065373663393015e-05 -4.7816281937056245e-05 0 -3.1065373663393015e-05 -4.7816281937056245e-05 0 -3.3360959549039197e-05 -5.7661400938421504e-05 0 -3.3360959549039197e-05 -5.7661400938421504e-05 0 -3.5398195753862083e-05 -6.7422029017642529e-05 0 -3.5398195753862083e-05 -6.7422029017642529e-05 0 -3.7343457667395374e-05 -7.6963957034407738e-05 0 -3.7343457667395374e-05 -7.6963957034407738e-05 0 -3.9324786230363453e-05 -8.5982011496617614e-05 0 -3.9324786230363453e-05 -8.5982011496617614e-05 0 -4.1345301696663411e-05 -9.4598453223266959e-05 0 -4.1345301696663411e-05 -9.4598453223266959e-05 0 -4.2654900765784738e-05 -0.00010187843900901928 0 -4.2654900765784738e-05 -0.00010187843900901928 0 -4.6625046167410933e-05 -0.00010940021902281118 0 -1.8448629301838977e-06 2.7718033866642029e-05 0 2.3623065653844922e-06 4.2403400006257481e-05 0 2.3623065653844922e-06 4.2403400006257481e-05 0 8.7365386264139042e-07 4.9769466523810323e-05 0 8.7365386264139042e-07 4.9769466523810323e-05 0 -9.0318851495000721e-07 6.3452471388728549e-05 0 -9.0318851495000721e-07 6.3452471388728549e-05 0 -3.0637435709605657e-06 7.5677215925637492e-05 0 -3.0637435709605657e-06 7.5677215925637492e-05 0 -5.5405836755837947e-06 8.9038751482507742e-05 0 -5.5405836755837947e-06 8.9038751482507742e-05 0 -8.3236747025683798e-06 0.00010235564548887851 0 -8.3236747025683798e-06 0.00010235564548887851 0 -1.1185720561819629e-05 0.00011478046161833664 0 -1.1185720561819629e-05 0.00011478046161833664 0 -1.5558064710993704e-05 0.00012856662171387506 0 -1.5558064710993704e-05 0.00012856662171387506 0 -1.4617333052169335e-05 0.00013888403161788689 0 -1.4617333052169335e-05 0.00013888403161788689 0 -3.4576376025934676e-05 0.00015237945480742613 0 -2.0179088557276063e-05 -1.0063516440854059e-05 0 -1.5440505054418414e-05 -4.7930674727770592e-06 0 -1.8645207911676643e-05 -9.0190251649991835e-06 0 -1.8184113604597074e-05 -6.4820238620925793e-06 0 -1.5440505054418414e-05 -4.7930674727770592e-06 0 -2.0179088557276063e-05 -1.0063516440854059e-05 0 -3.4207984249541149e-05 -1.72265176968243e-05 0 -3.0281038895877909e-05 -1.3256879162642029e-05 0 -3.0955303150614316e-05 -1.7135999270229471e-05 0 -3.0955303150614316e-05 -1.7135999270229471e-05 0 -3.0281038895877913e-05 -1.3256879162642029e-05 0 -2.7741871845592714e-05 -1.5639988249198923e-05 0 -1.6521869930958656e-05 5.6909336605147933e-06 0 -7.1874523450623463e-06 1.631341320137261e-06 0 -1.4931442525098588e-05 3.4413273460329177e-06 0 -1.2457353120500556e-05 -5.6604172066755808e-06 0 -1.1090012965590128e-05 -4.1139812510466967e-06 0 -5.3949199840870185e-06 -2.0542882920464575e-06 0 -8.5518074105649375e-06 4.0271960720160406e-06 0 -7.1874523450623463e-06 1.631341320137261e-06 0 -1.6521869930958656e-05 5.6909336605147933e-06 0 -6.6649391059041782e-06 -3.7593862000586535e-06 0 -1.2457353120500556e-05 -5.6604172066755808e-06 0 -5.3949199840870185e-06 -2.0542882920464575e-06 0 -3.0745618254256429e-05 -1.192400737033189e-05 0 -3.7294073378602069e-05 -1.5128051859369731e-05 0 -2.9634025636425489e-05 -1.0916098311176122e-05 0 -5.5452350338987147e-05 1.8728094775182125e-05 0 -4.4380975128461904e-05 1.3388850955371471e-05 0 -4.3468912068890124e-05 1.2500912973464057e-05 0 -4.3870989397895782e-06 8.2136835655665488e-07 0 -5.617923404035504e-06 1.8588776227669439e-06 0 -5.6676001685476038e-06 6.3921826012551114e-07 0 -7.4766039421930107e-06 2.6662168320478938e-06 0 -5.6676001685476038e-06 6.3921826012551114e-07 0 -5.617923404035504e-06 1.8588776227669439e-06 0 -6.7488046921594329e-06 -1.9787449152688813e-07 0 -8.9569058808531764e-06 -9.1478692957536061e-07 0 -6.3448847940659903e-06 1.1597045573438353e-07 0 -2.9281792268999014e-09 -6.2309736690340493e-10 0 -2.3371797397657979e-09 -4.3355579856939543e-10 0 -2.5459411599969887e-06 -9.1731002010963573e-07 0 -2.3749192645468827e-09 2.5865081123003672e-10 0 -2.7493773464657491e-09 2.5685990567361936e-10 0 -2.5874146802596142e-06 3.7559361921979853e-07 0 -3.8419241124433767e-05 -2.2314952324209952e-05 0 -3.8540616424126411e-05 -2.2128889169112853e-05 0 -3.4207984249541149e-05 -1.72265176968243e-05 0 -3.4988860240911697e-06 3.1082860810490703e-05 0 -8.9244016871643756e-06 2.0630518405522537e-05 0 -1.1288631619055118e-05 2.0814995463327974e-05 0 -6.0011058849839429e-05 -0.00016962510645995195 0 -5.0956548557052631e-05 -0.00015905743454975546 0 -5.987611790436133e-05 -0.00015535767642517942 0 -7.4114991774420539e-05 0.00035713623967155065 0 -9.7299669812868586e-05 0.00033343234759960322 0 -7.3793644794349644e-05 0.00032390722561916383 0 -7.4114991774420539e-05 0.00035713623967155065 0 -7.3793644794349644e-05 0.00032390722561916383 0 -5.1473024742831732e-05 0.00033211679650852621 0 -6.0011058849839429e-05 -0.00016962510645995195 0 -5.987611790436133e-05 -0.00015535767642517942 0 -6.962170855491086e-05 -0.00015942509537179936 0 -0.00010129142216541405 0.00030571873911502403 0 -7.1321395049493691e-05 0.00029186648227606663 0 -7.3793644794349644e-05 0.00032390722561916383 0 -4.8707808112015428e-05 -0.00014647036037740644 0 -5.9912002164462659e-05 -0.00014070910077201338 0 -5.987611790436133e-05 -0.00015535767642517942 0 -6.7488046921594329e-06 -1.9787449152688813e-07 0 -6.3448847940659903e-06 1.1597045573438353e-07 0 -4.5114077348603212e-06 3.5989490172077413e-07 0 -3.4988860240911697e-06 3.1082860810490703e-05 0 -1.428922243756769e-05 2.8452252721416373e-05 0 -8.9244016871643756e-06 2.0630518405522537e-05 0 -0.00012064144150823175 9.5009247461573556e-05 0 -0.00010871991505193891 7.1646653011881207e-05 0 -8.8654753050060306e-05 7.6480179443216037e-05 0 -6.6496928750859133e-05 -4.0465048415090736e-05 0 -7.3107761730698188e-05 -5.0894622287576975e-05 0 -5.826891047210137e-05 -4.2654312129998255e-05 0 -3.2780062555369692e-05 -1.8710250470322314e-05 0 -3.8419241124433767e-05 -2.2314952324209952e-05 0 -3.4207984249541149e-05 -1.72265176968243e-05 0 -6.2722077815727535e-05 6.2768188739079601e-05 0 -5.4643261611988629e-05 3.9311677201576564e-05 0 -4.5185424140788506e-05 4.1579066113000013e-05 0 -3.2414995600857831e-05 1.3985262740442544e-05 0 -4.3023085015222433e-05 1.9730747689054631e-05 0 -4.0226876611125768e-05 1.3191538763357542e-05 0 -2.5230922384538897e-05 -4.0567478131496201e-06 0 -2.1989305235089211e-05 2.4814878846872168e-07 0 -2.7160669756718999e-05 -7.1454761415312491e-06 0 -5.8167516827503219e-05 -0.00012540552219914933 0 -4.9624843574030261e-05 -0.00012057801564324073 0 -5.7735733871930241e-05 -0.00010895695235963894 0 -7.1271028829833624e-05 0.00025932379598180201 0 -9.0630188073565678e-05 0.00025015608506662721 0 -6.5948700543682254e-05 0.00022276118068135275 0 -5.7735733871930241e-05 -0.00010895695235963894 0 -4.9624843574030261e-05 -0.00012057801564324073 0 -4.7854389731768728e-05 -0.00010637803496392956 0 -6.5948700543682254e-05 0.00022276118068135275 0 -9.0630188073565678e-05 0.00025015608506662721 0 -8.90716733349162e-05 0.00022330638032318464 0 -3.2414995600857831e-05 1.3985262740442544e-05 0 -4.0226876611125768e-05 1.3191538763357542e-05 0 -2.8678126652983479e-05 9.2532276597804056e-06 0 -2.5818108927927207e-05 -9.0411080007379088e-06 0 -2.1559686432551437e-05 2.6806559844875501e-06 0 -2.5230922384538897e-05 -4.0567478131496201e-06 0 -6.2722077815727535e-05 6.2768188739079601e-05 0 -7.1031177007764177e-05 5.4411623772029456e-05 0 -5.4643261611988635e-05 3.9311677201576564e-05 0 -3.4988860240911697e-06 3.1082860810490703e-05 0 8.3226779376259597e-06 7.8110804687998305e-05 0 -1.6512864461363224e-05 8.1138090623298452e-05 0 -5.2229161543526119e-05 -5.1511465984071332e-05 0 -4.7596906318000192e-05 -4.7744926539313998e-05 0 -5.2481216845348143e-05 -4.8981619190413139e-05 0 -3.5973621758958802e-05 -4.8624496799767883e-05 0 -3.4728222475189201e-05 -4.6277346707406035e-05 0 -3.6040505438834043e-05 -4.9860033602786535e-05 0 -1.8485860440575672e-05 6.4086764862892361e-06 0 -2.1989305235089211e-05 2.4814878846872168e-07 0 -2.5230922384538897e-05 -4.0567478131496201e-06 0 -3.0878869262453364e-05 -0.00015286845612161326 0 -3.8584974441715701e-05 -0.00014314773073899494 0 -4.1794552811636298e-05 -0.00015534839329759401 0 -0.0001538070931108596 0.00033136608870337736 0 -0.0001281238579138472 0.00030280656383130286 0 -0.00012295920588319291 0.00032800970678322768 0 -1.9566897097702311e-09 -3.3545991679150672e-10 0 -1.6208692193436911e-06 -2.9713134560332391e-07 0 -1.8321872381404614e-06 -6.0145421419001502e-07 0 -2.1052971758376036e-09 2.7909816738505576e-10 0 -2.0721756417777371e-06 4.3861683306393886e-07 0 -1.9355147146637551e-06 5.0223433514748407e-07 0 -6.2722077815727535e-05 6.2768188739079601e-05 0 -4.5380517068124065e-05 5.9974581225819399e-05 0 -5.8710149939720144e-05 9.0195184291743107e-05 0 -3.6570144841999503e-05 7.9962550425756655e-05 0 -5.8710149939720144e-05 9.0195184291743107e-05 0 -4.5380517068124065e-05 5.9974581225819399e-05 0 -2.1529467439035406e-05 5.0716198945802947e-05 0 -3.4988860240911697e-06 3.1082860810490703e-05 0 -1.6512864461363224e-05 8.1138090623298452e-05 0 -0.0001535949756628182 0.0002743401053221093 0 -0.00011723468419956976 0.00027502910919701323 0 -0.0001281238579138472 0.00030280656383130286 0 -2.605206462490893e-05 -0.00012595409222230117 0 -4.0889586648155355e-05 -0.00013064120687304422 0 -3.8584974441715694e-05 -0.00014314773073899491 0 -3.570280128325625e-05 -4.3682513835171419e-05 0 -3.5916834226861242e-05 -4.0238439143608152e-05 0 -3.8385913088777439e-05 -4.3471580818672425e-05 0 -2.4646507620566127e-05 -4.239256070322625e-06 0 -2.7160669756718999e-05 -7.1454761415312491e-06 0 -2.1989305235089211e-05 2.4814878846872168e-07 0 -3.0110399165878114e-05 -1.2581012322158636e-05 0 -3.266873164599131e-05 -1.7838761183458154e-05 0 -3.0047137659693712e-05 -1.7425021261619937e-05 0 -2.5587917068493414e-05 -2.7224603314370896e-05 0 -2.5599737169612126e-05 -2.3695712485952723e-05 0 -3.0185323132333469e-05 -2.9221857137752875e-05 0 -0.00013982566627626135 0.00015139929826589389 0 -0.00010960818305092266 0.00013155079245807746 0 -0.0001203904955259889 0.00016839421906203906 0 -9.3903129249088983e-05 -0.00013280254855847453 0 -8.2931488161788969e-05 -0.00014600787130051728 0 -7.8757288689299373e-05 -0.00013389986057365128 0 5.7935358541125033e-06 0.00026307171970680476 0 -2.112230941801447e-05 0.00029834834368492545 0 -2.6765975889251935e-05 0.00027296888204395915 0 -2.8444628217303784e-05 -0.00013932339057668239 0 -3.8584974441715694e-05 -0.00014314773073899491 0 -3.0878869262453364e-05 -0.00015286845612161326 0 -0.0001538070931108596 0.00033136608870337736 0 -0.00015390196099596509 0.00030329865637140294 0 -0.0001281238579138472 0.00030280656383130286 0 -4.470761261069348e-05 -4.2203883358798296e-05 0 -4.523683504117483e-05 -3.8885230672336292e-05 0 -4.7597782139978846e-05 -4.2892557255869597e-05 0 -2.4680038319081135e-05 -2.2663266025710934e-05 0 -2.837769962054856e-05 -2.7275287326189953e-05 0 -2.9654479364238158e-05 -3.8687941507291249e-05 0 -4.470761261069348e-05 -4.2203883358798296e-05 0 -4.2872657502524979e-05 -3.9019035125452494e-05 0 -4.523683504117483e-05 -3.8885230672336292e-05 0 -2.9165540425878242e-05 -2.4078745372232742e-05 0 -3.0185323132333469e-05 -2.9221857137752875e-05 0 -2.5599737169612126e-05 -2.3695712485952723e-05 0 -4.996729636407751e-05 -6.4836427648529545e-05 0 -5.3788456542514643e-05 -8.2513564801875761e-05 0 -4.3284977805045165e-05 -6.862630782343077e-05 0 -4.0394694316686351e-09 2.9511155341242728e-10 0 -5.3949199840870185e-06 -2.0542882920464575e-06 0 -3.7564385551222929e-06 -7.7815927732768878e-07 0 -5.476851868716887e-09 -6.9401211333807253e-10 0 -4.8897408321629453e-06 5.3176473280430389e-08 0 -7.1874523450623463e-06 1.631341320137261e-06 0 -5.2229161543526119e-05 -5.1511465984071332e-05 0 -4.7628810140129337e-05 -5.1079031920568067e-05 0 -4.7596906318000192e-05 -4.7744926539313998e-05 0 -3.6501285195061437e-05 -5.0895963397040589e-05 0 -3.5973621758958802e-05 -4.8624496799767883e-05 0 -3.6040505438834043e-05 -4.9860033602786535e-05 0 -4.1677809431012965e-09 -9.6919336363123657e-10 0 -6.3537935228291708e-06 -5.1489146181936163e-07 0 -4.8897408321629444e-06 5.3176473280429991e-08 0 -3.3845788340183986e-09 3.5135729665427614e-10 0 -3.7564385551222929e-06 -7.7815927732768878e-07 0 -5.1040986859241047e-06 -6.1844626856397327e-07 0 -5.6676001685476038e-06 6.3921826012551114e-07 0 -4.2839198346651203e-06 -7.1137810518888005e-07 0 -4.0565642266776762e-06 3.1427400059848273e-08 0 -1.8261093114843835e-05 -7.4160535754279294e-06 0 -1.523664082175916e-05 -4.9817208086605394e-06 0 -1.1090012965590128e-05 -4.1139812510466967e-06 0 -2.4968817541839851e-05 7.4007137646726268e-06 0 -1.4931442525098589e-05 3.4413273460329177e-06 0 -2.0678939598904772e-05 3.981373982692792e-06 0 -3.4214372794794771e-05 -2.9189865226586732e-05 0 -3.2219878831731466e-05 -2.4656654008600273e-05 0 -3.586983976878155e-05 -2.6914096411896506e-05 0 -3.3540503215206064e-05 -2.2208221049347719e-05 0 -3.0047137659693712e-05 -1.7425021261619937e-05 0 -3.266873164599131e-05 -1.7838761183458154e-05 0 -9.0357076339912462e-07 0.00031996591021686723 0 -2.8195077111340608e-05 0.00032404109803195588 0 -2.112230941801447e-05 0.00029834834368492545 0 -9.4146853156407977e-05 -0.00015848680958183056 0 -8.0598724440290461e-05 -0.00015698882753253538 0 -8.2931488161788969e-05 -0.00014600787130051728 0 -3.3540503215206064e-05 -2.2208221049347719e-05 0 -3.586983976878155e-05 -2.6914096411896506e-05 0 -3.2219878831731466e-05 -2.4656654008600273e-05 0 -3.5916834226861242e-05 -4.0238439143608152e-05 0 -3.2944666913700088e-05 -3.874902254568463e-05 0 -3.46268726505424e-05 -3.5066725744020299e-05 0 -8.9535472273504987e-05 0.00019538373753330538 0 -7.9104219694595639e-05 0.00015609722842635301 0 -6.3480023782173871e-05 0.00016999882973025703 0 -5.476851868716887e-09 -6.9401211333807253e-10 0 -5.8558671008692629e-09 4.4354978508479827e-10 0 -4.8897408321629444e-06 5.3176473280429991e-08 0 -4.4949548614932275e-09 -5.9894008833930453e-10 0 -4.0394694316686351e-09 2.9511155341242728e-10 0 -3.7564385551222929e-06 -7.7815927732768878e-07 0 -5.6676001685476038e-06 6.3921826012551114e-07 0 -6.8002092162847226e-06 1.4579888314758556e-07 0 -4.2839198346651203e-06 -7.1137810518888005e-07 0 -4.6324346935523976e-05 0.00030367874987105912 0 -7.3793644794349644e-05 0.00032390722561916383 0 -7.1321395049493691e-05 0.00029186648227606663 0 -7.1233514787697144e-05 -0.00014677325103284612 0 -5.987611790436133e-05 -0.00015535767642517942 0 -5.9912002164462659e-05 -0.00014070910077201338 0 -5.3788456542514643e-05 -8.2513564801875761e-05 0 -4.4829462892333859e-05 -8.2414525305938912e-05 0 -4.3284977805045165e-05 -6.862630782343077e-05 0 -2.424725108121256e-06 3.514312450265758e-07 0 -3.441679547487509e-06 7.1112088328723894e-07 0 -3.1725983580036927e-06 4.2590168296145125e-07 0 -1.8405955696596382e-05 3.2337584886521532e-06 0 -1.4635752057844979e-05 2.9027900004115806e-06 0 -2.1072095760253498e-05 5.7440969036415759e-06 0 -3.2944666913700088e-05 -3.874902254568463e-05 0 -3.1291105893714142e-05 -3.4472368749804486e-05 0 -3.46268726505424e-05 -3.5066725744020299e-05 0 -3.1725983580036927e-06 4.2590168296145125e-07 0 -3.441679547487509e-06 7.1112088328723894e-07 0 -4.0391087429336367e-06 9.0465661093043206e-07 0 -3.441679547487509e-06 7.1112088328723894e-07 0 -2.0389490721894336e-06 4.2703678845812469e-07 0 -3.5501078935808421e-06 6.8882864727970248e-07 0 -2.6176164373035647e-06 5.8827695596399114e-07 0 -3.5501078935808421e-06 6.8882864727970248e-07 0 -2.0389490721894336e-06 4.2703678845812469e-07 0 -4.7987611474296828e-05 -4.1321744410600232e-05 0 -4.523683504117483e-05 -3.8885230672336292e-05 0 -4.7139283879850742e-05 -3.7937087387526448e-05 0 -3.0110399165878114e-05 -1.2581012322158636e-05 0 -3.0047137659693712e-05 -1.7425021261619937e-05 0 -2.7980289228629948e-05 -1.074955950068873e-05 0 -3.570280128325625e-05 -4.3682513835171419e-05 0 -3.2944666913700088e-05 -3.874902254568463e-05 0 -3.5916834226861242e-05 -4.0238439143608152e-05 0 -1.8485860440575672e-05 6.4086764862892361e-06 0 -2.5230922384538897e-05 -4.0567478131496192e-06 0 -2.1559686432551437e-05 2.6806559844875501e-06 0 2.5392858411225578e-06 0.00029129337645664974 0 -9.0357076339912462e-07 0.00031996591021686723 0 -2.112230941801447e-05 0.00029834834368492545 0 -9.4186503010834546e-05 -0.00014596447722170679 0 -9.4146853156407977e-05 -0.00015848680958183056 0 -8.2931488161788969e-05 -0.00014600787130051728 0 -9.3903129249088983e-05 -0.00013280254855847453 0 -9.4186503010834546e-05 -0.00014596447722170679 0 -8.2931488161788969e-05 -0.00014600787130051728 0 5.7935358541125033e-06 0.00026307171970680476 0 2.5392858411225578e-06 0.00029129337645664974 0 -2.112230941801447e-05 0.00029834834368492545 0 -1.3506378582161955e-05 1.1493425103735467e-05 0 -1.3186181905482641e-05 8.9471702465532077e-06 0 -1.8485860440575672e-05 6.4086764862892361e-06 0 -6.3800272071512378e-06 2.907603930862218e-07 0 -4.2078663852127835e-06 5.9605234658731786e-07 0 -6.3448847940659903e-06 1.1597045573438353e-07 0 -3.6740877201151974e-06 5.4233215132375148e-07 0 -6.3448847940659903e-06 1.1597045573438353e-07 0 -4.2078663852127835e-06 5.9605234658731786e-07 0 -1.7987078771546634e-05 0.00017099016065975025 0 -1.1419352752987572e-05 0.00019120184336281654 0 -4.0333318641295846e-05 0.00019361282944923932 0 -1.1419352752987572e-05 0.00019120184336281654 0 -1.977187615332592e-05 0.00021291469402731872 0 -4.0333318641295846e-05 0.00019361282944923932 0 -2.5818108927927207e-05 -9.0411080007379088e-06 0 -2.5230922384538897e-05 -4.0567478131496209e-06 0 -2.7980289228629948e-05 -1.074955950068873e-05 0 -3.7349116469317451e-05 -5.1990687873717366e-05 0 -3.6040505438834043e-05 -4.9860033602786535e-05 0 -3.7138215051062016e-05 -4.8826446423907738e-05 0 -4.310984364554803e-05 -5.1198089169740764e-05 0 -4.3840934599035323e-05 -4.6875245134239507e-05 0 -4.7596906318000192e-05 -4.7744926539313998e-05 0 -1.3186181905482641e-05 8.9471702465532077e-06 0 -1.6649573844826244e-05 4.584296110895905e-06 0 -1.8485860440575672e-05 6.4086764862892361e-06 0 -0.00015390196099596509 0.00030329865637140294 0 -0.0001535949756628182 0.0002743401053221093 0 -0.0001281238579138472 0.00030280656383130286 0 -2.605206462490893e-05 -0.00012595409222230117 0 -3.8584974441715694e-05 -0.00014314773073899491 0 -2.8444628217303784e-05 -0.00013932339057668239 0 -3.7294073378602069e-05 -1.5128051859369731e-05 0 -3.6778392073960706e-05 -1.5021171925873829e-05 0 -2.9634025636425489e-05 -1.0916098311176122e-05 0 -5.5452350338987147e-05 1.8728094775182125e-05 0 -4.3468912068890124e-05 1.2500912973464057e-05 0 -5.3673843150070066e-05 1.8937994150835938e-05 0 -2.5818108927927207e-05 -9.0411080007379088e-06 0 -3.0047137659693712e-05 -1.7425021261619937e-05 0 -2.6096044740795547e-05 -1.8265219588843682e-05 0 -2.4680038319081135e-05 -2.2663266025710934e-05 0 -2.9654479364238158e-05 -3.8687941507291249e-05 0 -2.0161676422750646e-05 -4.0584251113544959e-05 0 -2.9165540425878242e-05 -2.4078745372232742e-05 0 -3.0047137659693712e-05 -1.7425021261619937e-05 0 -3.2219878831731466e-05 -2.4656654008600273e-05 0 -3.3540503215206064e-05 -2.2208221049347719e-05 0 -3.2219878831731466e-05 -2.4656654008600273e-05 0 -3.0047137659693712e-05 -1.7425021261619937e-05 0 -6.0011058849839429e-05 -0.00016962510645995195 0 -5.043319335588827e-05 -0.00016874592768817751 0 -5.0956548557052631e-05 -0.00015905743454975546 0 -7.4114991774420539e-05 0.00035713623967155065 0 -9.97268769376047e-05 0.00035786527681978684 0 -9.7299669812868573e-05 0.00033343234759960322 0 -5.0061307447095025e-05 0.00035525913713162688 0 -7.4114991774420539e-05 0.00035713623967155065 0 -5.1473024742831732e-05 0.00033211679650852621 0 -7.0679025041133249e-05 -0.00016994535120760219 0 -6.0011058849839429e-05 -0.00016962510645995195 0 -6.962170855491086e-05 -0.00015942509537179936 0 -2.8227949903240938e-05 3.83789714925765e-05 0 -4.5380517068124065e-05 5.9974581225819399e-05 0 -4.5185424140788506e-05 4.1579066113000013e-05 0 -3.8347240351566582e-05 -2.6707575610412498e-05 0 -4.1506140527326651e-05 -3.114875277618034e-05 0 -3.9307111861794928e-05 -3.1393217887888371e-05 0 -2.9165540425878242e-05 -2.4078745372232742e-05 0 -3.2219878831731466e-05 -2.4656654008600273e-05 0 -3.0185323132333469e-05 -2.9221857137752875e-05 0 -3.4214372794794771e-05 -2.9189865226586732e-05 0 -3.0185323132333469e-05 -2.9221857137752875e-05 0 -3.2219878831731466e-05 -2.4656654008600273e-05 0 -3.6032250513686479e-05 -7.1786232962959613e-05 0 -3.3324994723192367e-05 -5.5300838001495374e-05 0 -4.3284977805045165e-05 -6.862630782343077e-05 0 -0.00012064144150823175 9.5009247461573556e-05 0 -8.8654753050060306e-05 7.6480179443216037e-05 0 -0.00010773446476876486 0.00010520612673628363 0 -3.1339083728797081e-05 -1.7525222762223245e-05 0 -3.8044089810687936e-05 -2.4442848218098391e-05 0 -2.9962000656037879e-05 -1.9867052887944131e-05 0 -3.4587115750453425e-05 -2.7169285906868818e-05 0 -2.9962000656037879e-05 -1.9867052887944131e-05 0 -3.8044089810687936e-05 -2.4442848218098391e-05 0 -4.6053416282720481e-05 -4.467939611069917e-05 0 -4.2304174385710232e-05 -4.3850059308783757e-05 0 -4.470761261069348e-05 -4.2203883358798296e-05 0 -9.8771485216022208e-05 0.00015155724038702168 0 -0.0001203904955259889 0.00016839421906203906 0 -0.00010960818305092266 0.00013155079245807746 0 -3.6056832628756376e-05 -1.5904289743195286e-05 0 -4.4059788810874644e-05 -2.1658471103602934e-05 0 -3.7663040192839361e-05 -1.9700857147352683e-05 0 -4.5615907733619895e-05 -2.6131441239203132e-05 0 -3.7663040192839361e-05 -1.9700857147352683e-05 0 -4.4059788810874644e-05 -2.1658471103602934e-05 0 -6.6316382887167792e-05 4.1430994198177196e-05 0 -6.5405085890067412e-05 3.1972866014295816e-05 0 -5.2724470221861528e-05 2.8918838406473336e-05 0 -5.1970913682246065e-05 2.1786312639072655e-05 0 -5.2724470221861528e-05 2.8918838406473336e-05 0 -6.5405085890067412e-05 3.1972866014295816e-05 0 -4.3372392450992281e-05 -3.5535848684056054e-05 0 -4.041360688869582e-05 -3.5654828605171728e-05 0 -3.9307111861794928e-05 -3.1393217887888371e-05 0 -7.3107761730698188e-05 -5.0894622287576975e-05 0 -6.799280835988834e-05 -5.5139371679549092e-05 0 -5.826891047210137e-05 -4.2654312129998255e-05 0 -2.8055334764900569e-05 0.00014351989086073963 0 -4.4251139471356597e-05 0.00011548074533978306 0 -2.217272437777988e-05 0.00011004983233036142 0 -2.4646507620566127e-05 -4.239256070322625e-06 0 -2.615383869290765e-05 -8.0745219251805876e-06 0 -2.9466462618991663e-05 -1.0568674248198707e-05 0 -8.9412970213359963e-06 2.2099579014239939e-06 0 -8.085257448633995e-06 4.3369606972554848e-06 0 -6.9525048750686062e-06 2.7458352834741036e-06 0 -0.00011056277054453102 0.00024139294525671868 0 -9.0630188073565678e-05 0.00025015608506662721 0 -0.00011723468419956976 0.00027502910919701323 0 -4.0873770108859203e-05 -0.00011464853313841887 0 -4.9624843574030261e-05 -0.00012057801564324073 0 -4.0889586648155355e-05 -0.00013064120687304422 0 -2.5818108927927207e-05 -9.0411080007379088e-06 0 -2.7980289228629948e-05 -1.0749559500688728e-05 0 -3.0047137659693712e-05 -1.7425021261619937e-05 0 -4.3840934599035323e-05 -4.68752451342395e-05 0 -4.2304174385710232e-05 -4.3850059308783757e-05 0 -4.6053416282720481e-05 -4.467939611069917e-05 0 -3.4214372794794771e-05 -2.9189865226586732e-05 0 -3.7018653785035905e-05 -3.1757352634746254e-05 0 -3.46268726505424e-05 -3.5066725744020299e-05 0 -2.3371797397657979e-09 -4.3355579856939543e-10 0 -1.8321872381404614e-06 -6.0145421419001502e-07 0 -2.5459411599969887e-06 -9.1731002010963573e-07 0 -2.3749192645468827e-09 2.5865081123003672e-10 0 -2.5874146802596142e-06 3.7559361921979853e-07 0 -2.0721756417777371e-06 4.3861683306393886e-07 0 -3.3324994723192367e-05 -5.5300838001495374e-05 0 -4.2076392541821288e-05 -5.5723118291972065e-05 0 -4.3284977805045165e-05 -6.862630782343077e-05 0 -1.8405955696596382e-05 3.2337584886521532e-06 0 -2.1072095760253498e-05 5.7440969036415759e-06 0 -2.4845910864313371e-05 5.3855315311642326e-06 0 -3.7766027870052698e-05 2.4224296392493123e-05 0 -4.5185424140788499e-05 4.1579066113000006e-05 0 -5.4643261611988635e-05 3.9311677201576564e-05 0 -2.9639590987957265e-06 -4.3125682148307006e-07 0 -1.6208692193436911e-06 -2.9713134560332391e-07 0 -3.0384236708603564e-06 -2.0943303050492662e-09 0 -2.222498283404192e-06 1.0124077375260026e-07 0 -3.0384236708603564e-06 -2.0943303050492662e-09 0 -1.6208692193436911e-06 -2.9713134560332391e-07 0 -2.6176164373035647e-06 5.8827695596399114e-07 0 -1.9355147146637551e-06 5.0223433514748407e-07 0 -4.2078663852127835e-06 5.9605234658731786e-07 0 -3.6740877201151974e-06 5.4233215132375148e-07 0 -4.2078663852127835e-06 5.9605234658731786e-07 0 -1.9355147146637551e-06 5.0223433514748407e-07 0 -3.2414995600857831e-05 1.3985262740442544e-05 0 -2.7185366577413659e-05 1.5761042074894554e-05 0 -3.7766027870052698e-05 2.4224296392493123e-05 0 -8.9412970213359963e-06 2.2099579014239939e-06 0 -1.0848179413251808e-05 3.566081924169106e-06 0 -8.085257448633995e-06 4.3369606972554848e-06 0 -7.4766039421930107e-06 2.6662168320478938e-06 0 -8.1488681620985484e-06 1.3183341588003144e-06 0 -5.6676001685476038e-06 6.3921826012551114e-07 0 -2.1072095760253498e-05 5.7440969036415759e-06 0 -1.4635752057844979e-05 2.9027900004115806e-06 0 -1.7384178528348604e-05 6.4690288761578865e-06 0 -1.453794557965316e-05 2.7812951731490927e-06 0 -1.2003548552242192e-05 6.2370972017646152e-06 0 -1.0848179413251808e-05 3.5660819241691056e-06 0 -1.4709618490586883e-05 -4.0375512904691023e-06 0 -1.639086479930273e-05 -5.6402675100613693e-06 0 -1.2527876565732028e-05 -2.8022373931509608e-06 0 -1.4760163039156678e-05 -4.6699663109484018e-06 0 -1.2527876565732028e-05 -2.8022373931509608e-06 0 -1.639086479930273e-05 -5.6402675100613693e-06 0 -5.8558671008691711e-09 4.4354978508479739e-10 0 -4.1677809431012965e-09 -9.6919336363123657e-10 0 -4.8897408321629444e-06 5.3176473280429991e-08 0 -3.3845788340183986e-09 3.5135729665427614e-10 0 -4.4949548614932275e-09 -5.9894008833930453e-10 0 -3.7564385551222929e-06 -7.7815927732768878e-07 0 1.1408493516655168e-05 0.00011156202257873965 0 -2.217272437777988e-05 0.00011004983233036142 0 -1.6512864461363224e-05 8.1138090623298452e-05 0 -6.3800272071512378e-06 2.907603930862218e-07 0 -9.2201865653148241e-06 -7.8563468885899982e-07 0 -6.7727316157809936e-06 4.5394293890898559e-07 0 -3.0281038895877909e-05 -1.3256879162642029e-05 0 -2.5051814240924662e-05 -1.04665926300424e-05 0 -2.7741871845592714e-05 -1.5639988249198923e-05 0 -4.0115199813018058e-05 -4.6556357597177136e-05 0 -4.2304174385710232e-05 -4.3850059308783757e-05 0 -4.3840934599035323e-05 -4.68752451342395e-05 0 -3.0745618254256429e-05 -1.192400737033189e-05 0 -2.9634025636425489e-05 -1.0916098311176122e-05 0 -2.5020109724464657e-05 -8.8266814305216998e-06 0 -4.4380975128461904e-05 1.3388850955371471e-05 0 -3.5640663542679696e-05 8.9242781368421182e-06 0 -4.3468912068890124e-05 1.2500912973464057e-05 0 -3.7682575835768862e-05 -3.5604376906933405e-05 0 -3.46268726505424e-05 -3.5066725744020299e-05 0 -3.7018653785035905e-05 -3.1757352634746254e-05 0 -2.9634025636425489e-05 -1.0916098311176122e-05 0 -2.517179274362276e-05 -8.8576773288987721e-06 0 -2.3998647442137466e-05 -8.0465224086576931e-06 0 -3.1645658115833395e-05 8.6249152827772471e-06 0 -2.8678126652983479e-05 9.2532276597804056e-06 0 -4.0226876611125768e-05 1.3191538763357542e-05 0 -3.1368725586394904e-05 -1.2312877835982048e-05 0 -2.517179274362276e-05 -8.8576773288987721e-06 0 -2.9634025636425489e-05 -1.0916098311176122e-05 0 -1.1110077851932897e-05 -1.8391119658090958e-06 0 -1.3093875193913191e-05 -2.7550186975827479e-06 0 -1.4676930391596063e-05 -3.6114609527544877e-06 0 -1.0643795786792592e-05 8.9401058111226213e-07 0 -1.4635752057844979e-05 2.9027900004115806e-06 0 -1.4842652327734735e-05 1.2131844451499738e-06 0 -4.3023085015222433e-05 1.9730747689054631e-05 0 -3.2414995600857831e-05 1.3985262740442544e-05 0 -3.7766027870052698e-05 2.4224296392493123e-05 0 -4.3372392450992281e-05 -3.5535848684056054e-05 0 -3.9307111861794928e-05 -3.1393217887888371e-05 0 -4.1506140527326651e-05 -3.114875277618034e-05 0 -3.2163754641229067e-05 0.0002412973733535616 0 -2.6765975889251935e-05 0.00027296888204395915 0 -5.0820897206168367e-05 0.0002707549845787858 0 -7.4053067763830629e-05 -0.00011877710313155418 0 -7.8757288689299373e-05 -0.00013389986057365131 0 -6.7653688531360274e-05 -0.00013154340498226693 0 -2.9639590987957265e-06 -4.3125682148307006e-07 0 -1.8321872381404617e-06 -6.0145421419001502e-07 0 -1.6208692193436911e-06 -2.9713134560332391e-07 0 -3.6740877201151974e-06 5.4233215132375148e-07 0 -1.9355147146637551e-06 5.0223433514748407e-07 0 -2.0721756417777371e-06 4.3861683306393886e-07 0 -2.9281792268999014e-09 -6.2309736690340493e-10 0 -2.5459411599969887e-06 -9.1731002010963573e-07 0 -2.8671189150916703e-06 -9.3228712566831253e-07 0 -2.7493773464657491e-09 2.5685990567361936e-10 0 -2.6527586660076877e-06 2.0282721070515298e-07 0 -2.5874146802596142e-06 3.7559361921979853e-07 0 -3.0281038895877909e-05 -1.3256879162642029e-05 0 -3.4207984249541149e-05 -1.72265176968243e-05 0 -3.3413775051358467e-05 -1.5651888266617666e-05 0 -3.6284631353860007e-05 -1.95502347987939e-05 0 -3.3413775051358467e-05 -1.5651888266617666e-05 0 -3.4207984249541149e-05 -1.72265176968243e-05 0 -6.5183859287802753e-05 0.00012360530059272114 0 -5.8710149939720144e-05 9.0195184291743107e-05 0 -4.4251139471356597e-05 0.00011548074533978306 0 -3.6570144841999503e-05 7.9962550425756655e-05 0 -4.4251139471356604e-05 0.00011548074533978307 0 -5.8710149939720144e-05 9.0195184291743107e-05 0 -1.4160861792647112e-05 1.9249897326552643e-05 0 -1.0155891281126916e-05 1.2897600044401921e-05 0 -8.9244016871643756e-06 2.0630518405522537e-05 0 -3.0281038895877909e-05 -1.3256879162642029e-05 0 -2.615383869290765e-05 -8.0745219251805876e-06 0 -2.5051814240924662e-05 -1.04665926300424e-05 0 -4.3870989397895782e-06 8.2136835655665488e-07 0 -3.1725983580036927e-06 4.2590168296145125e-07 0 -4.0391087429336367e-06 9.0465661093043206e-07 0 -3.8347240351566582e-05 -2.6707575610412498e-05 0 -3.9307111861794928e-05 -3.1393217887888371e-05 0 -3.586983976878155e-05 -2.6914096411896506e-05 0 -8.9535472273504987e-05 0.00019538373753330538 0 -0.00010117439618806162 0.0001734579370175887 0 -7.9104219694595639e-05 0.00015609722842635301 0 -4.7987611474296828e-05 -4.1321744410600232e-05 0 -4.7139283879850742e-05 -3.7937087387526448e-05 0 -4.9908557317435552e-05 -4.2324330165896715e-05 0 -3.5916834226861242e-05 -4.0238439143608152e-05 0 -3.7832565682086622e-05 -3.8898053059606743e-05 0 -3.8385913088777439e-05 -4.3471580818672425e-05 0 -9.5264954596029629e-06 -1.1154703119773409e-06 0 -6.3448847940659903e-06 1.1597045573438354e-07 0 -8.9569058808531764e-06 -9.1478692957536061e-07 0 -6.2722077815727535e-05 6.2768188739079601e-05 0 -4.5185424140788506e-05 4.1579066113000013e-05 0 -4.5380517068124065e-05 5.9974581225819399e-05 0 -1.2457353120500556e-05 -5.6604172066755808e-06 0 -1.8261093114843835e-05 -7.4160535754279294e-06 0 -1.1090012965590128e-05 -4.1139812510466967e-06 0 -2.4968817541839851e-05 7.4007137646726268e-06 0 -1.6521869930958656e-05 5.6909336605147933e-06 0 -1.4931442525098588e-05 3.4413273460329177e-06 0 -2.9165540425878242e-05 -2.4078745372232742e-05 0 -2.6096044740795547e-05 -1.8265219588843682e-05 0 -3.0047137659693712e-05 -1.7425021261619937e-05 0 -5.5759538297827039e-06 -2.8129255752544086e-07 0 -9.2744695958714078e-06 -1.2215541711594552e-06 0 -5.5262683112672371e-06 -2.7023881807441267e-09 0 -6.3066471153961139e-06 -9.4585121817505216e-07 0 -5.3623761649452668e-06 -1.0427336362270326e-06 0 -1.0218900238212559e-05 -2.3229219541573342e-07 0 -0.00010871991505193891 7.1646653011881207e-05 0 -8.4553810284672612e-05 5.6240575199375506e-05 0 -8.8654753050060306e-05 7.6480179443216037e-05 0 -6.6496928750859133e-05 -4.0465048415090736e-05 0 -5.826891047210137e-05 -4.2654312129998255e-05 0 -5.4807633564778337e-05 -3.2989174092389971e-05 0 -2.8227949903240938e-05 3.83789714925765e-05 0 -1.428922243756769e-05 2.8452252721416376e-05 0 -2.1529467439035406e-05 5.0716198945802947e-05 0 -3.4988860240911697e-06 3.1082860810490703e-05 0 -2.1529467439035406e-05 5.0716198945802947e-05 0 -1.428922243756769e-05 2.8452252721416376e-05 0 -3.7318944186842546e-05 -4.3712882277239349e-05 0 -4.6021381334276837e-05 -4.8086595207396913e-05 0 -4.2076392541821288e-05 -5.5723118291972065e-05 0 -4.996729636407751e-05 -6.4836427648529545e-05 0 -4.2076392541821288e-05 -5.5723118291972065e-05 0 -4.6021381334276837e-05 -4.8086595207396913e-05 0 -2.5818108927927207e-05 -9.0411080007379088e-06 0 -2.1153603819002471e-05 -1.3164905710729778e-06 0 -2.1559686432551437e-05 2.6806559844875501e-06 0 -4.0115199813018058e-05 -4.6556357597177136e-05 0 -4.3840934599035323e-05 -4.6875245134239507e-05 0 -4.1066259944677724e-05 -4.918290167134143e-05 0 -4.3870989397895782e-06 8.2136835655665488e-07 0 -5.6676001685476038e-06 6.3921826012551114e-07 0 -4.0565642266776762e-06 3.1427400059848273e-08 0 -3.8044089810687936e-05 -2.4442848218098391e-05 0 -4.8008664503973783e-05 -3.2421819738499513e-05 0 -4.1500282393767989e-05 -3.1439279733860175e-05 0 -3.7349116469317451e-05 -5.1990687873717366e-05 0 -3.7138215051062016e-05 -4.8826446423907738e-05 0 -3.8920746731774722e-05 -4.9467581396180811e-05 0 -8.9487419297757043e-05 0.00010464893540871951 0 -0.00010773446476876486 0.00010520612673628363 0 -8.8654753050060306e-05 7.6480179443216037e-05 0 -0.00011723468419956976 0.00027502910919701323 0 -9.0630188073565678e-05 0.00025015608506662721 0 -9.0322025894816815e-05 0.00027733396564908234 0 -4.0889586648155355e-05 -0.00013064120687304422 0 -4.9624843574030261e-05 -0.00012057801564324073 0 -5.1573127550841765e-05 -0.00013321565560256638 0 -1.1785875033860923e-05 -1.8838203630471058e-06 0 -1.1233974622303383e-05 -5.3945799524041555e-07 0 -9.1682680281242051e-06 -2.8305866364108934e-07 0 -3.6284631353860007e-05 -1.95502347987939e-05 0 -3.4207984249541149e-05 -1.72265176968243e-05 0 -3.8540616424126411e-05 -2.2128889169112853e-05 0 -5.5163625445408186e-06 1.6186142442450009e-06 0 -6.9525048750686062e-06 2.7458352834741036e-06 0 -5.955384090026703e-06 2.5889033580562333e-06 0 -7.031389449072602e-06 4.08635629649343e-06 0 -5.955384090026703e-06 2.5889033580562333e-06 0 -6.9525048750686062e-06 2.7458352834741036e-06 0 -2.1072095760253498e-05 5.7440969036415759e-06 0 -2.8678126652983479e-05 9.2532276597804056e-06 0 -2.4845910864313371e-05 5.3855315311642326e-06 0 -4.996729636407751e-05 -6.4836427648529545e-05 0 -5.8250882314611319e-05 -7.4090093404865132e-05 0 -5.3788456542514643e-05 -8.2513564801875761e-05 0 -2.6812734295769747e-05 5.2695604358490159e-06 0 -2.1399983754668716e-05 3.1632875079205528e-06 0 -3.2245785774013707e-05 7.5001391512794131e-06 0 -4.0333318641295846e-05 0.00019361282944923932 0 -6.5948700543682254e-05 0.00022276118068135275 0 -6.9898264043674146e-05 0.00019711572728865797 0 -4.0333318641295846e-05 0.00019361282944923932 0 -6.9898264043674146e-05 0.00019711572728865797 0 -6.3480023782173871e-05 0.00016999882973025703 0 -8.9535472273504987e-05 0.00019538373753330538 0 -6.3480023782173857e-05 0.00016999882973025703 0 -6.9898264043674146e-05 0.00019711572728865797 0 -6.4438898932778796e-05 -9.5663604669696131e-05 0 -5.7735733871930241e-05 -0.00010895695235963894 0 -5.2161608092144839e-05 -9.4988813743842809e-05 0 -6.4438898932778796e-05 -9.5663604669696131e-05 0 -5.2161608092144839e-05 -9.4988813743842809e-05 0 -5.3788456542514643e-05 -8.2513564801875761e-05 0 -1.0155891281126916e-05 1.2897600044401921e-05 0 -9.4669090291558214e-06 1.460824025366663e-05 0 -8.9244016871643756e-06 2.0630518405522537e-05 0 -1.9566897097702311e-09 -3.3545991679150672e-10 0 -1.5769650174229396e-09 6.8383859806584326e-14 0 -1.6208692193436911e-06 -2.9713134560332391e-07 0 -1.8193444986533446e-09 2.0843567661195245e-10 0 -2.1052971758376036e-09 2.7909816738505576e-10 0 -1.9355147146637551e-06 5.0223433514748407e-07 0 -9.2201865653148241e-06 -7.8563468885899982e-07 0 -9.1682680281242051e-06 -2.8305866364108945e-07 0 -6.7727316157809936e-06 4.5394293890898559e-07 0 -2.4680038319081135e-05 -2.2663266025710934e-05 0 -2.4530400064861356e-05 -1.9649401485949512e-05 0 -2.837769962054856e-05 -2.7275287326189953e-05 0 -2.1399983754668716e-05 3.1632875079205528e-06 0 -2.4845910864313371e-05 5.3855315311642317e-06 0 -3.2245785774013707e-05 7.5001391512794131e-06 0 -1.5637699212308608e-09 1.6052394600968894e-10 0 -2.0389490721894336e-06 4.2703678845812469e-07 0 -1.3091734325545458e-06 1.367252794462541e-07 0 -2.4968817541839851e-05 7.4007137646726268e-06 0 -2.0678939598904772e-05 3.981373982692792e-06 0 -2.8636855126319006e-05 6.82933916403008e-06 0 -1.8261093114843835e-05 -7.4160535754279294e-06 0 -2.0570006899549381e-05 -7.2485545018360786e-06 0 -1.5236640821759158e-05 -4.9817208086605394e-06 0 -5.9894348824547954e-05 -5.4327754429871863e-05 0 -5.826891047210137e-05 -4.2654312129998255e-05 0 -6.799280835988834e-05 -5.5139371679549092e-05 0 -3.5501078935808421e-06 6.8882864727970248e-07 0 -2.6176164373035647e-06 5.8827695596399114e-07 0 -4.7426746919638186e-06 6.7219817652902835e-07 0 -4.3372392450992281e-05 -3.5535848684056054e-05 0 -4.7139283879850742e-05 -3.7937087387526448e-05 0 -4.523683504117483e-05 -3.8885230672336292e-05 0 -1.453794557965316e-05 2.7812951731490927e-06 0 -1.0848179413251808e-05 3.5660819241691056e-06 0 -1.330911151168582e-05 1.0904423966674861e-06 0 -2.8055334764900569e-05 0.00014351989086073963 0 -5.3494283499039057e-05 0.00014601283141715734 0 -4.4251139471356597e-05 0.00011548074533978306 0 -4.3870989397895782e-06 8.2136835655665488e-07 0 -3.0384236708603564e-06 -2.0943303050492662e-09 0 -3.1725983580036927e-06 4.2590168296145125e-07 0 -0.00010129142216541405 0.00030571873911502403 0 -9.0322025894816815e-05 0.00027733396564908234 0 -7.1321395049493691e-05 0.00029186648227606663 0 -4.8707808112015428e-05 -0.00014647036037740644 0 -5.1573127550841765e-05 -0.00013321565560256638 0 -5.9912002164462659e-05 -0.00014070910077201338 0 -2.6176164373035647e-06 5.8827695596399114e-07 0 -4.2078663852127835e-06 5.9605234658731786e-07 0 -4.7426746919638186e-06 6.7219817652902835e-07 0 -1.453794557965316e-05 2.7812951731490927e-06 0 -1.68203181980694e-05 -1.0233800842910034e-06 0 -1.9595550782039875e-05 -3.1660494419844415e-07 0 -4.6324346935523976e-05 0.00030367874987105912 0 -5.1473024742831732e-05 0.00033211679650852621 0 -7.3793644794349644e-05 0.00032390722561916383 0 -0.00010129142216541405 0.00030571873911502403 0 -7.3793644794349644e-05 0.00032390722561916377 0 -9.7299669812868573e-05 0.00033343234759960322 0 -7.1233514787697144e-05 -0.00014677325103284612 0 -6.962170855491086e-05 -0.00015942509537179936 0 -5.987611790436133e-05 -0.00015535767642517942 0 -4.8707808112015428e-05 -0.00014647036037740644 0 -5.987611790436133e-05 -0.00015535767642517942 0 -5.0956548557052631e-05 -0.00015905743454975546 0 -3.7766027870052698e-05 2.4224296392493123e-05 0 -5.4643261611988635e-05 3.9311677201576564e-05 0 -5.2724470221861528e-05 2.8918838406473336e-05 0 -4.6892836908465168e-05 -3.7467195773857479e-05 0 -5.826891047210137e-05 -4.2654312129998255e-05 0 -5.2561769693457475e-05 -4.6930122673687688e-05 0 -5.9894348824547954e-05 -5.4327754429871863e-05 0 -5.2561769693457475e-05 -4.6930122673687688e-05 0 -5.826891047210137e-05 -4.2654312129998255e-05 0 -8.9487419297757043e-05 0.00010464893540871951 0 -8.8654753050060306e-05 7.6480179443216037e-05 0 -7.3839990694911885e-05 8.7190501177367101e-05 0 -6.2722077815727535e-05 6.2768188739079601e-05 0 -7.3839990694911885e-05 8.7190501177367101e-05 0 -8.8654753050060306e-05 7.6480179443216037e-05 0 -3.6740877201151974e-06 5.4233215132375148e-07 0 -4.5114077348603212e-06 3.5989490172077413e-07 0 -6.3448847940659903e-06 1.1597045573438353e-07 0 8.3226779376259597e-06 7.8110804687998305e-05 0 1.1408493516655168e-05 0.00011156202257873965 0 -1.6512864461363224e-05 8.1138090623298452e-05 0 -6.3066471153961139e-06 -9.4585121817505216e-07 0 -9.7548892629366488e-06 -3.5210420227611207e-07 0 -6.3537935228291699e-06 -5.1489146181936153e-07 0 -5.5759538297827039e-06 -2.8129255752544086e-07 0 -5.1040986859241047e-06 -6.1844626856397327e-07 0 -8.0725155767178833e-06 -1.1550304782760038e-06 0 -3.0281038895877909e-05 -1.3256879162642029e-05 0 -2.9466462618991663e-05 -1.0568674248198707e-05 0 -2.615383869290765e-05 -8.0745219251805876e-06 0 -9.2744695958714078e-06 -1.2215541711594552e-06 0 -8.5857875052792946e-06 -8.5225935596525177e-07 0 -5.5262683112672371e-06 -2.7023881807441267e-09 0 -1.0218900238212559e-05 -2.3229219541573342e-07 0 -5.3623761649452668e-06 -1.0427336362270326e-06 0 -8.3855040627441762e-06 -1.2757631199649535e-07 0 -3.1645658115833395e-05 8.6249152827772471e-06 0 -4.0226876611125768e-05 1.3191538763357542e-05 0 -3.2245785774013707e-05 7.5001391512794131e-06 0 -4.3468912068890124e-05 1.2500912973464057e-05 0 -3.2245785774013707e-05 7.5001391512794131e-06 0 -4.0226876611125768e-05 1.3191538763357542e-05 0 -4.6324346935523976e-05 0.00030367874987105912 0 -5.0820897206168367e-05 0.0002707549845787858 0 -2.6765975889251935e-05 0.00027296888204395915 0 -7.1233514787697144e-05 -0.00014677325103284612 0 -6.7653688531360274e-05 -0.00013154340498226693 0 -7.8757288689299373e-05 -0.00013389986057365128 0 -3.7349116469317451e-05 -5.1990687873717366e-05 0 -3.6501285195061437e-05 -5.0895963397040589e-05 0 -3.6040505438834043e-05 -4.9860033602786535e-05 0 -4.7628810140129337e-05 -5.1079031920568067e-05 0 -4.310984364554803e-05 -5.1198089169740764e-05 0 -4.7596906318000192e-05 -4.7744926539313998e-05 0 -1.7950219392716636e-05 -6.0608340165519193e-06 0 -1.4709618490586883e-05 -4.0375512904691023e-06 0 -1.4676930391596063e-05 -3.6114609527544877e-06 0 -5.2257853425000304e-05 -4.6236796484801598e-05 0 -5.077562928030852e-05 -4.4804885453970263e-05 0 -4.9908557317435552e-05 -4.2324330165896715e-05 0 -2.7019524355752293e-05 -3.2499570851178172e-05 0 -2.8140078027868575e-05 -3.4659743833174581e-05 0 -3.1507128677225147e-05 -4.0377478350277361e-05 0 -3.570280128325625e-05 -4.3682513835171419e-05 0 -3.3722205464936474e-05 -4.2866804442160447e-05 0 -3.2944666913700088e-05 -3.874902254568463e-05 0 -4.5615907733619895e-05 -2.6131441239203132e-05 0 -4.8008664503973783e-05 -3.2421819738499513e-05 0 -3.8044089810687936e-05 -2.4442848218098391e-05 0 -4.310984364554803e-05 -5.1198089169740764e-05 0 -4.1066259944677724e-05 -4.918290167134143e-05 0 -4.3840934599035323e-05 -4.68752451342395e-05 0 -5.1970913682246065e-05 2.1786312639072655e-05 0 -4.0226876611125768e-05 1.3191538763357542e-05 0 -4.3023085015222433e-05 1.9730747689054631e-05 0 -1.1233974622303383e-05 -5.3945799524041566e-07 0 -8.9630035408091326e-06 7.4428580585292425e-07 0 -9.1682680281242051e-06 -2.8305866364108934e-07 0 -4.6892836908465168e-05 -3.7467195773857479e-05 0 -4.6021381334276837e-05 -4.8086595207396913e-05 0 -4.0233810730856749e-05 -3.6715714668333786e-05 0 -3.7318944186842546e-05 -4.3712882277239349e-05 0 -4.0233810730856749e-05 -3.6715714668333786e-05 0 -4.6021381334276837e-05 -4.8086595207396913e-05 0 -1.9048090212820847e-05 -6.1204395561866291e-06 0 -1.7950219392716636e-05 -6.0608340165519193e-06 0 -1.4676930391596063e-05 -3.6114609527544877e-06 0 -4.6892836908465168e-05 -3.7467195773857479e-05 0 -4.1500282393767989e-05 -3.1439279733860175e-05 0 -4.8008664503973783e-05 -3.2421819738499513e-05 0 -1.6339017992117728e-05 -4.3158185601759006e-06 0 -1.9048090212820847e-05 -6.1204395561866291e-06 0 -1.4676930391596063e-05 -3.6114609527544877e-06 0 -1.0643795786792592e-05 8.9401058111226213e-07 0 -1.0205251135001424e-05 2.6747841997850989e-06 0 -1.4635752057844979e-05 2.9027900004115806e-06 0 -4.6892836908465168e-05 -3.7467195773857479e-05 0 -4.8008664503973783e-05 -3.2421819738499513e-05 0 -5.826891047210137e-05 -4.2654312129998255e-05 0 -6.2722077815727535e-05 6.2768188739079601e-05 0 -8.8654753050060306e-05 7.6480179443216037e-05 0 -7.1031177007764177e-05 5.4411623772029456e-05 0 -4.1677809431012965e-09 -9.6919336363123657e-10 0 -3.0832432132566962e-06 -7.1071983076854779e-07 0 -6.3537935228291699e-06 -5.1489146181936153e-07 0 -3.3845788340183986e-09 3.5135729665427614e-10 0 -5.1040986859241047e-06 -6.1844626856397327e-07 0 -2.6258895836171848e-06 -2.4387194341629399e-08 0 -1.6339017992117728e-05 -4.3158185601759006e-06 0 -1.4676930391596063e-05 -3.6114609527544877e-06 0 -1.3093875193913191e-05 -2.7550186975827479e-06 0 -1.8405955696596382e-05 3.2337584886521532e-06 0 -1.4842652327734735e-05 1.2131844451499738e-06 0 -1.4635752057844979e-05 2.9027900004115806e-06 0 -6.1243036284932552e-06 -5.8056219981714612e-07 0 -4.2839198346651203e-06 -7.1137810518888005e-07 0 -6.8002092162847226e-06 1.4579888314758556e-07 0 -2.837769962054856e-05 -2.7275287326189953e-05 0 -3.434432480392215e-05 -3.2526498113602984e-05 0 -2.9654479364238158e-05 -3.8687941507291249e-05 0 -4.3870989397895782e-06 8.2136835655665488e-07 0 -4.0391087429336359e-06 9.0465661093043217e-07 0 -4.9025506684022378e-06 1.4668908812939551e-06 0 -0.00010129142216541405 0.00030571873911502403 0 -0.00011723468419956976 0.00027502910919701323 0 -9.0322025894816815e-05 0.00027733396564908234 0 -4.8707808112015428e-05 -0.00014647036037740644 0 -4.0889586648155355e-05 -0.00013064120687304422 0 -5.1573127550841765e-05 -0.00013321565560256638 0 -1.1110077851932897e-05 -1.8391119658090958e-06 0 -9.2744695958714078e-06 -1.2215541711594552e-06 0 -1.3093875193913191e-05 -2.7550186975827479e-06 0 -1.0643795786792592e-05 8.9401058111226213e-07 0 -1.4842652327734735e-05 1.2131844451499738e-06 0 -1.0218900238212559e-05 -2.3229219541573342e-07 0 -3.441679547487509e-06 7.1112088328723894e-07 0 -4.981244025471914e-06 8.2975450893225666e-07 0 -4.741159841272238e-06 1.0549796913023886e-06 0 -3.434432480392215e-05 -3.2526498113602984e-05 0 -3.7318944186842546e-05 -4.3712882277239349e-05 0 -2.9654479364238158e-05 -3.8687941507291249e-05 0 -0.00015014226572078769 0.00021334754645294807 0 -0.00014603974206987326 0.00018225925021002492 0 -0.00011904639153094394 0.00019651244652757474 0 -2.0114697884952492e-05 -8.2380185617355166e-05 0 -3.3106741940649642e-05 -9.2167477097112861e-05 0 -2.1650687045750442e-05 -9.6802296017177105e-05 0 -6.4438898932778796e-05 -9.5663604669696131e-05 0 -5.3788456542514643e-05 -8.2513564801875748e-05 0 -6.2895916487861188e-05 -8.3256372866094558e-05 0 -2.1183621991976171e-05 -5.1155267046891018e-06 0 -2.5051814240924662e-05 -1.0466592630042399e-05 0 -2.615383869290765e-05 -8.0745219251805876e-06 0 -2.6812734295769747e-05 5.2695604358490159e-06 0 -2.0678939598904769e-05 3.9813739826927912e-06 0 -1.9770168942620299e-05 2.7786986362911645e-06 0 -1.9719907329313335e-05 -6.1539259112285296e-06 0 -1.5033324968113528e-05 -4.1799002647628655e-06 0 -1.5236640821759158e-05 -4.9817208086605394e-06 0 -1.0632690971542352e-05 8.397481511211389e-06 0 -9.9741192586484665e-06 4.8810272853809413e-06 0 -7.9229241085632885e-06 5.4559989486121761e-06 0 -3.441679547487509e-06 7.1112088328723894e-07 0 -3.5501078935808421e-06 6.8882864727970248e-07 0 -4.981244025471914e-06 8.2975450893225655e-07 0 -3.6284631353860007e-05 -1.95502347987939e-05 0 -4.0055226749878519e-05 -2.5041573652531361e-05 0 -3.6877208928294593e-05 -2.1817670770866058e-05 0 -2.6812734295769747e-05 5.2695604358490159e-06 0 -2.8636855126319006e-05 6.82933916403008e-06 0 -2.0678939598904772e-05 3.981373982692792e-06 0 -1.9719907329313335e-05 -6.1539259112285296e-06 0 -1.5236640821759156e-05 -4.9817208086605394e-06 0 -2.0570006899549384e-05 -7.2485545018360795e-06 0 -1.453794557965316e-05 2.7812951731490927e-06 0 -1.330911151168582e-05 1.0904423966674861e-06 0 -1.68203181980694e-05 -1.0233800842910034e-06 0 -5.8167516827503219e-05 -0.00012540552219914933 0 -5.7735733871930241e-05 -0.00010895695235963894 0 -6.4721184115778632e-05 -0.00011804837161904803 0 -7.1271028829833624e-05 0.00025932379598180201 0 -6.5948700543682254e-05 0.00022276118068135275 0 -5.3132130695465286e-05 0.00024191577205284271 0 -4.5615907733619895e-05 -2.6131441239203132e-05 0 -3.8044089810687936e-05 -2.4442848218098391e-05 0 -3.7663040192839361e-05 -1.9700857147352683e-05 0 -3.1339083728797081e-05 -1.7525222762223245e-05 0 -3.7663040192839361e-05 -1.9700857147352683e-05 0 -3.8044089810687936e-05 -2.4442848218098391e-05 0 -1.8645207911676643e-05 -9.0190251649991835e-06 0 -2.13160540287347e-05 -1.1783928467242604e-05 0 -2.1656907624140491e-05 -1.3796128040938823e-05 0 -2.483312474702269e-05 -1.686634954392471e-05 0 -2.1656907624140491e-05 -1.3796128040938823e-05 0 -2.13160540287347e-05 -1.1783928467242604e-05 0 -2.5459411599969887e-06 -9.1731002010963573e-07 0 -4.2839198346651203e-06 -7.1137810518888005e-07 0 -5.3623761649452668e-06 -1.0427336362270326e-06 0 -6.1243036284932552e-06 -5.8056219981714612e-07 0 -5.3623761649452668e-06 -1.0427336362270326e-06 0 -4.2839198346651203e-06 -7.1137810518888005e-07 0 -6.7488046921594329e-06 -1.9787449152688813e-07 0 -4.5114077348603212e-06 3.5989490172077413e-07 0 -5.5262683112672371e-06 -2.7023881807441267e-09 0 -2.5874146802596142e-06 3.7559361921979853e-07 0 -5.5262683112672371e-06 -2.7023881807441267e-09 0 -4.5114077348603212e-06 3.5989490172077413e-07 0 -4.3372392450992281e-05 -3.5535848684056054e-05 0 -4.2872657502524972e-05 -3.9019035125452494e-05 0 -4.041360688869582e-05 -3.5654828605171728e-05 0 -2.1183621991976171e-05 -5.1155267046891018e-06 0 -1.9595550782039875e-05 -3.1660494419844415e-07 0 -1.68203181980694e-05 -1.0233800842910034e-06 0 -7.031389449072602e-06 4.08635629649343e-06 0 -6.8449991227519845e-06 3.6765564922538721e-06 0 -5.955384090026703e-06 2.5889033580562333e-06 0 -4.0333318641295846e-05 0.00019361282944923932 0 -4.2460729289305029e-05 0.00022281911080937605 0 -6.5948700543682254e-05 0.00022276118068135275 0 -6.4438898932778796e-05 -9.5663604669696131e-05 0 -6.7656886031519845e-05 -0.00010882596938084743 0 -5.7735733871930241e-05 -0.00010895695235963894 0 -4.0333318641295846e-05 0.00019361282944923932 0 -6.3480023782173871e-05 0.00016999882973025703 0 -4.0918239028257369e-05 0.00016488858389131572 0 -1.0632690971542352e-05 8.397481511211389e-06 0 -1.3922687509123721e-05 7.6366383419968129e-06 0 -9.9741192586484648e-06 4.8810272853809413e-06 0 -1.0632690971542352e-05 8.397481511211389e-06 0 -1.447662962196041e-05 1.2966845019939803e-05 0 -1.3922687509123721e-05 7.6366383419968129e-06 0 -6.5183859287802753e-05 0.00012360530059272114 0 -5.349428349903905e-05 0.00014601283141715737 0 -7.9104219694595639e-05 0.00015609722842635301 0 -6.3480023782173871e-05 0.00016999882973025703 0 -7.9104219694595639e-05 0.00015609722842635301 0 -5.349428349903905e-05 0.00014601283141715737 0 -1.0098005607257455e-05 9.8855835521726519e-07 0 -6.3537935228291708e-06 -5.1489146181936142e-07 0 -1.1276475075540832e-05 3.3386163322281794e-07 0 -7.6773251505098979e-06 -2.0464209832045373e-06 0 -8.8715526657977988e-06 -1.7822373283631213e-06 0 -5.1040986859241047e-06 -6.1844626856397327e-07 0 -3.7318944186842546e-05 -4.3712882277239349e-05 0 -4.2076392541821288e-05 -5.5723118291972065e-05 0 -3.3324994723192367e-05 -5.5300838001495374e-05 0 -5.2257853425000304e-05 -4.6236796484801598e-05 0 -5.3430520334970594e-05 -4.932203340905467e-05 0 -5.077562928030852e-05 -4.480488545397027e-05 0 -2.7019524355752293e-05 -3.2499570851178172e-05 0 -3.1507128677225147e-05 -4.0377478350277361e-05 0 -2.9592734792173552e-05 -3.6093737092085462e-05 0 -1.4013096374113259e-05 -1.2534966572090412e-06 0 -1.68203181980694e-05 -1.0233800842910034e-06 0 -1.330911151168582e-05 1.0904423966674861e-06 0 -7.031389449072602e-06 4.08635629649343e-06 0 -8.2507247359554821e-06 6.7746166916914796e-06 0 -7.9229241085632885e-06 5.4559989486121761e-06 0 -4.0115199813018058e-05 -4.6556357597177136e-05 0 -3.8385913088777439e-05 -4.3471580818672425e-05 0 -4.2304174385710232e-05 -4.3850059308783757e-05 0 -4.0148199573180717e-05 -4.1383211175333412e-05 0 -4.2304174385710232e-05 -4.3850059308783757e-05 0 -3.8385913088777439e-05 -4.3471580818672425e-05 0 -3.4214372794794771e-05 -2.9189865226586732e-05 0 -3.46268726505424e-05 -3.5066725744020299e-05 0 -3.0185323132333469e-05 -2.9221857137752875e-05 0 -0.00010129142216541405 0.00030571873911502403 0 -0.0001281238579138472 0.00030280656383130286 0 -0.00011723468419956976 0.00027502910919701323 0 -4.8707808112015428e-05 -0.00014647036037740644 0 -3.8584974441715694e-05 -0.00014314773073899491 0 -4.0889586648155355e-05 -0.00013064120687304422 0 -4.9717349215734196e-05 -4.5832738698151629e-05 0 -5.2481216845348143e-05 -4.8981619190413139e-05 0 -4.7596906318000192e-05 -4.7744926539313998e-05 0 -3.4332337777746707e-05 -4.5798103738766069e-05 0 -3.6040505438834043e-05 -4.9860033602786535e-05 0 -3.4728222475189201e-05 -4.6277346707406035e-05 0 -4.6324346935523976e-05 0.00030367874987105912 0 -7.1321395049493691e-05 0.00029186648227606663 0 -5.0820897206168367e-05 0.0002707549845787858 0 -7.1233514787697144e-05 -0.00014677325103284612 0 -5.9912002164462659e-05 -0.00014070910077201338 0 -6.7653688531360274e-05 -0.00013154340498226693 0 -3.441679547487509e-06 7.1112088328723894e-07 0 -4.741159841272238e-06 1.0549796913023886e-06 0 -4.0391087429336367e-06 9.0465661093043206e-07 0 -5.5163625445408186e-06 1.6186142442450009e-06 0 -4.0391087429336367e-06 9.0465661093043206e-07 0 -4.741159841272238e-06 1.0549796913023886e-06 0 -3.2163754641229067e-05 0.0002412973733535616 0 -5.0820897206168367e-05 0.0002707549845787858 0 -5.3132130695465286e-05 0.00024191577205284271 0 -7.4053067763830629e-05 -0.00011877710313155418 0 -6.7653688531360274e-05 -0.00013154340498226693 0 -6.4721184115778632e-05 -0.00011804837161904803 0 -6.3066471153961139e-06 -9.4585121817505216e-07 0 -6.3537935228291699e-06 -5.1489146181936142e-07 0 -3.0832432132566962e-06 -7.1071983076854779e-07 0 -5.5759538297827039e-06 -2.8129255752544086e-07 0 -2.6258895836171848e-06 -2.4387194341629399e-08 0 -5.1040986859241047e-06 -6.1844626856397327e-07 0 -3.6570144841999503e-05 7.9962550425756655e-05 0 -2.217272437777988e-05 0.00011004983233036142 0 -4.4251139471356597e-05 0.00011548074533978306 0 -1.0098005607257455e-05 9.8855835521726519e-07 0 -4.8897408321629444e-06 5.3176473280429991e-08 0 -6.3537935228291699e-06 -5.1489146181936153e-07 0 -7.6773251505098979e-06 -2.0464209832045373e-06 0 -5.1040986859241047e-06 -6.1844626856397327e-07 0 -3.7564385551222929e-06 -7.7815927732768878e-07 0 -0.0001535949756628182 0.0002743401053221093 0 -0.00013163258512850239 0.00025287718191494999 0 -0.00011723468419956976 0.00027502910919701323 0 -2.605206462490893e-05 -0.00012595409222230117 0 -3.3240428809296604e-05 -0.00011835414366187843 0 -4.0889586648155355e-05 -0.00013064120687304422 0 -2.8227949903240938e-05 3.83789714925765e-05 0 -4.5185424140788506e-05 4.1579066113000013e-05 0 -3.0680743894871102e-05 2.8856248921796085e-05 0 -3.7766027870052698e-05 2.4224296392493123e-05 0 -3.0680743894871102e-05 2.8856248921796085e-05 0 -4.5185424140788506e-05 4.1579066113000013e-05 0 -4.996729636407751e-05 -6.4836427648529545e-05 0 -4.6021381334276837e-05 -4.8086595207396913e-05 0 -5.3458352102246003e-05 -5.5331414105411904e-05 0 -2.5818108927927207e-05 -9.0411080007379088e-06 0 -2.6096044740795547e-05 -1.8265219588843682e-05 0 -2.1944090379058216e-05 -1.2583527638465116e-05 0 -6.5183859287802753e-05 0.00012360530059272114 0 -7.4690234023214915e-05 0.00010635730891958247 0 -5.8710149939720144e-05 9.0195184291743107e-05 0 -6.2722077815727535e-05 6.2768188739079601e-05 0 -5.8710149939720144e-05 9.0195184291743107e-05 0 -7.3839990694911885e-05 8.7190501177367101e-05 0 -4.6892836908465168e-05 -3.7467195773857479e-05 0 -5.2561769693457475e-05 -4.6930122673687688e-05 0 -4.6021381334276837e-05 -4.8086595207396913e-05 0 -3.7318944186842546e-05 -4.3712882277239349e-05 0 -3.3324994723192367e-05 -5.5300838001495374e-05 0 -2.9654479364238158e-05 -3.8687941507291249e-05 0 -4.7987611474296828e-05 -4.1321744410600232e-05 0 -4.9908557317435552e-05 -4.2324330165896715e-05 0 -5.077562928030852e-05 -4.480488545397027e-05 0 -3.1365579283040422e-05 -3.8890923420881503e-05 0 -3.1507128677225147e-05 -4.0377478350277361e-05 0 -2.8140078027868575e-05 -3.4659743833174581e-05 0 -2.4646507620566127e-05 -4.239256070322625e-06 0 -2.9466462618991663e-05 -1.0568674248198707e-05 0 -2.7160669756718999e-05 -7.1454761415312491e-06 0 -3.0281038895877909e-05 -1.3256879162642029e-05 0 -3.3413775051358467e-05 -1.5651888266617666e-05 0 -2.9466462618991663e-05 -1.0568674248198707e-05 0 -1.3186181905482641e-05 8.9471702465532077e-06 0 -1.2003548552242192e-05 6.2370972017646152e-06 0 -1.6649573844826244e-05 4.584296110895905e-06 0 -2.837769962054856e-05 -2.7275287326189953e-05 0 -2.4530400064861356e-05 -1.9649401485949512e-05 0 -2.902905265423384e-05 -2.3242914716507442e-05 0 -4.6324346935523976e-05 0.00030367874987105912 0 -2.6765975889251935e-05 0.00027296888204395915 0 -2.112230941801447e-05 0.00029834834368492545 0 -7.1233514787697144e-05 -0.00014677325103284612 0 -7.8757288689299373e-05 -0.00013389986057365128 0 -8.2931488161788969e-05 -0.00014600787130051728 0 -1.453794557965316e-05 2.7812951731490927e-06 0 -1.6649573844826244e-05 4.584296110895905e-06 0 -1.2003548552242192e-05 6.2370972017646152e-06 0 -2.5587917068493414e-05 -2.7224603314370896e-05 0 -3.0185323132333469e-05 -2.9221857137752875e-05 0 -2.7685885259708766e-05 -3.1075102228249781e-05 0 -4.0148199573180717e-05 -4.1383211175333412e-05 0 -3.8385913088777439e-05 -4.3471580818672425e-05 0 -3.7832565682086622e-05 -3.8898053059606743e-05 0 -9.4971041164664934e-06 5.9787442242655613e-06 0 -1.0848179413251808e-05 3.5660819241691056e-06 0 -1.2003548552242192e-05 6.2370972017646152e-06 0 -2.9639590987957265e-06 -4.3125682148307006e-07 0 -4.0565642266776762e-06 3.142740005984828e-08 0 -4.2839198346651203e-06 -7.1137810518888005e-07 0 -7.9320882065475002e-05 -6.3033264836723804e-05 0 -8.4336214061334576e-05 -7.6216312622155353e-05 0 -7.000851575642979e-05 -6.6513018522343766e-05 0 -1.0643795786792592e-05 8.9401058111226213e-07 0 -8.3855040627441762e-06 -1.2757631199649535e-07 0 -6.8002092162847226e-06 1.4579888314758556e-07 0 -5.955384090026703e-06 2.5889033580562333e-06 0 -6.8449991227519845e-06 3.6765564922538721e-06 0 -5.617923404035504e-06 1.8588776227669439e-06 0 -1.453794557965316e-05 2.7812951731490927e-06 0 -1.9595550782039875e-05 -3.1660494419844415e-07 0 -1.6649573844826244e-05 4.584296110895905e-06 0 -0.00013982566627626135 0.00015139929826589389 0 -0.00013154765758504081 0.00012218594698430949 0 -0.00010960818305092266 0.00013155079245807746 0 -2.6176164373035647e-06 5.8827695596399114e-07 0 -2.0389490721894336e-06 4.2703678845812469e-07 0 -1.0705300232939216e-06 2.9016956961409331e-07 0 -7.4766039421930107e-06 2.6662168320478938e-06 0 -7.9229241085632885e-06 5.4559989486121761e-06 0 -9.9741192586484648e-06 4.8810272853809413e-06 0 -3.8347240351566582e-05 -2.6707575610412498e-05 0 -4.0163328896022228e-05 -2.6885750876268753e-05 0 -4.1506140527326651e-05 -3.114875277618034e-05 0 -6.4438898932778796e-05 -9.5663604669696131e-05 0 -7.3740726081402639e-05 -8.9353160461146808e-05 0 -7.7316549840762252e-05 -0.0001046386828502267 0 -1.0643795786792592e-05 8.9401058111226213e-07 0 -6.8002092162847226e-06 1.4579888314758556e-07 0 -8.1488681620985484e-06 1.3183341588003142e-06 0 -3.441679547487509e-06 7.1112088328723894e-07 0 -2.424725108121256e-06 3.514312450265758e-07 0 -2.0389490721894336e-06 4.2703678845812469e-07 0 -1.2863318720012625e-05 4.5950622405305184e-06 0 -9.9741192586484648e-06 4.8810272853809413e-06 0 -1.3922687509123721e-05 7.6366383419968129e-06 0 -4.0055226749878519e-05 -2.5041573652531361e-05 0 -4.0163328896022228e-05 -2.6885750876268753e-05 0 -3.6877208928294593e-05 -2.1817670770866058e-05 0 -4.7987611474296828e-05 -4.1321744410600232e-05 0 -4.7597782139978846e-05 -4.2892557255869597e-05 0 -4.523683504117483e-05 -3.8885230672336292e-05 0 -3.1645658115833395e-05 8.6249152827772471e-06 0 -2.4845910864313371e-05 5.3855315311642326e-06 0 -2.8678126652983479e-05 9.2532276597804056e-06 0 5.7935358541125033e-06 0.00026307171970680476 0 -2.6765975889251935e-05 0.00027296888204395915 0 -1.214705540843797e-05 0.00024871677995137579 0 -9.3903129249088983e-05 -0.00013280254855847453 0 -7.8757288689299373e-05 -0.00013389986057365128 0 -8.4036164942497357e-05 -0.00012386145270518035 0 -4.9025506684022378e-06 1.4668908812939551e-06 0 -5.617923404035504e-06 1.8588776227669439e-06 0 -4.3870989397895782e-06 8.2136835655665488e-07 0 -5.955384090026703e-06 2.5889033580562333e-06 0 -5.617923404035504e-06 1.8588776227669439e-06 0 -4.9025506684022378e-06 1.4668908812939551e-06 0 -0.00011056277054453102 0.00024139294525671868 0 -0.00011723468419956976 0.00027502910919701323 0 -0.00013163258512850239 0.00025287718191494999 0 -4.0873770108859203e-05 -0.00011464853313841887 0 -4.0889586648155355e-05 -0.00013064120687304422 0 -3.3240428809296604e-05 -0.00011835414366187843 0 -5.5163625445408186e-06 1.6186142442450009e-06 0 -7.4102536673689453e-06 1.5441713414518422e-06 0 -6.9525048750686062e-06 2.7458352834741036e-06 0 -8.9412970213359963e-06 2.2099579014239939e-06 0 -6.9525048750686062e-06 2.7458352834741036e-06 0 -7.4102536673689453e-06 1.5441713414518422e-06 0 -5.5163625445408186e-06 1.6186142442450009e-06 0 -4.9025506684022378e-06 1.4668908812939551e-06 0 -4.0391087429336367e-06 9.0465661093043206e-07 0 -1.9719907329313335e-05 -6.1539259112285296e-06 0 -2.0191703256936145e-05 -6.1436987492911038e-06 0 -1.5622033054315951e-05 -4.0302593462040815e-06 0 -2.1017506664767201e-05 -9.5138628119932253e-06 0 -2.5519557665723977e-05 -1.4501722565183716e-05 0 -2.13160540287347e-05 -1.1783928467242604e-05 0 -2.483312474702269e-05 -1.686634954392471e-05 0 -2.13160540287347e-05 -1.1783928467242605e-05 0 -2.5519557665723977e-05 -1.4501722565183716e-05 0 -1.9719907329313335e-05 -6.1539259112285296e-06 0 -1.5622033054315951e-05 -4.0302593462040815e-06 0 -1.5033324968113528e-05 -4.1799002647628655e-06 0 -3.6570144841999503e-05 7.9962550425756655e-05 0 -1.6512864461363224e-05 8.1138090623298452e-05 0 -2.217272437777988e-05 0.00011004983233036142 0 -7.1271028829833624e-05 0.00025932379598180201 0 -7.1321395049493691e-05 0.00029186648227606663 0 -9.0322025894816815e-05 0.00027733396564908234 0 -5.8167516827503219e-05 -0.00012540552219914933 0 -5.9912002164462659e-05 -0.00014070910077201338 0 -5.1573127550841765e-05 -0.00013321565560256638 0 -1.1785875033860923e-05 -1.8838203630471058e-06 0 -9.2201865653148241e-06 -7.8563468885900003e-07 0 -1.1899900287531473e-05 -2.4194960735627305e-06 0 -1.5637699212308608e-09 1.6052394600968894e-10 0 -1.0705300232939216e-06 2.9016956961409331e-07 0 -2.0389490721894336e-06 4.2703678845812469e-07 0 -1.0632690971542352e-05 8.397481511211389e-06 0 -1.0155891281126916e-05 1.2897600044401921e-05 0 -1.447662962196041e-05 1.2966845019939803e-05 0 -3.1291105893714142e-05 -3.4472368749804486e-05 0 -3.0185323132333469e-05 -2.9221857137752875e-05 0 -3.46268726505424e-05 -3.5066725744020299e-05 0 -3.4214372794794771e-05 -2.9189865226586732e-05 0 -3.586983976878155e-05 -2.6914096411896506e-05 0 -3.7018653785035905e-05 -3.1757352634746254e-05 0 -4.981244025471914e-06 8.2975450893225655e-07 0 -6.7727316157809936e-06 4.5394293890898559e-07 0 -6.0706591025183802e-06 1.019546863042628e-06 0 -5.9894348824547954e-05 -5.4327754429871863e-05 0 -7.000851575642979e-05 -6.6513018522343766e-05 0 -5.8111122633193815e-05 -6.4929402108734318e-05 0 -6.687058342119272e-05 -7.5380596912767736e-05 0 -5.8111122633193815e-05 -6.4929402108734318e-05 0 -7.000851575642979e-05 -6.6513018522343766e-05 0 -1.5471745146978515e-09 -7.0926540284375531e-11 0 -1.5637699212309321e-09 1.6052394600969641e-10 0 -1.3091734325545458e-06 1.367252794462541e-07 0 -9.8771485216022208e-05 0.00015155724038702168 0 -0.00010960818305092266 0.00013155079245807746 0 -8.5936509440714086e-05 0.00012841323271993438 0 -8.9487419297757043e-05 0.00010464893540871951 0 -8.5936509440714086e-05 0.00012841323271993438 0 -0.00010960818305092266 0.00013155079245807746 0 -4.9717349215734196e-05 -4.5832738698151629e-05 0 -4.7597782139978846e-05 -4.2892557255869597e-05 0 -5.077562928030852e-05 -4.480488545397027e-05 0 -3.4332337777746707e-05 -4.5798103738766069e-05 0 -3.1507128677225147e-05 -4.0377478350277361e-05 0 -3.3722205464936474e-05 -4.2866804442160447e-05 0 -1.9679718479552094e-05 1.1372001762590918e-05 0 -1.3922687509123721e-05 7.6366383419968129e-06 0 -1.447662962196041e-05 1.2966845019939803e-05 0 -4.470761261069348e-05 -4.2203883358798296e-05 0 -4.2283829850453445e-05 -4.1228671950039629e-05 0 -4.2872657502524979e-05 -3.9019035125452494e-05 0 -1.0723470886337364e-05 1.625449153656659e-05 0 -1.1288631619055118e-05 2.0814995463327974e-05 0 -8.9244016871643756e-06 2.0630518405522537e-05 0 -1.0643795786792592e-05 8.9401058111226213e-07 0 -8.1488681620985484e-06 1.3183341588003142e-06 0 -1.0205251135001424e-05 2.6747841997850989e-06 0 -3.7766027870052698e-05 2.4224296392493123e-05 0 -2.2804478731939389e-05 1.894528671243305e-05 0 -3.0680743894871102e-05 2.8856248921796085e-05 0 1.1408493516655168e-05 0.00011156202257873965 0 -7.2634753073657458e-06 0.00013292460460510952 0 -2.217272437777988e-05 0.00011004983233036142 0 -1.1785875033860923e-05 -1.8838203630471058e-06 0 -9.1682680281242051e-06 -2.830586636410895e-07 0 -9.2201865653148241e-06 -7.8563468885899982e-07 0 -7.1271028829833624e-05 0.00025932379598180201 0 -5.0820897206168367e-05 0.0002707549845787858 0 -7.1321395049493691e-05 0.00029186648227606663 0 -5.8167516827503219e-05 -0.00012540552219914933 0 -6.7653688531360274e-05 -0.00013154340498226693 0 -5.9912002164462659e-05 -0.00014070910077201338 0 -6.3800272071512378e-06 2.907603930862218e-07 0 -7.9606786754267366e-06 -3.9635020701614649e-07 0 -9.2201865653148241e-06 -7.8563468885899982e-07 0 -2.2992848646654902e-05 -1.2367460150136378e-05 0 -2.7741871845592714e-05 -1.5639988249198923e-05 0 -2.5051814240924662e-05 -1.04665926300424e-05 0 -3.2163754641229067e-05 0.0002412973733535616 0 -1.214705540843797e-05 0.00024871677995137579 0 -2.6765975889251935e-05 0.00027296888204395915 0 -7.4053067763830629e-05 -0.00011877710313155418 0 -8.4036164942497343e-05 -0.00012386145270518035 0 -7.8757288689299373e-05 -0.00013389986057365128 0 -3.7294073378602069e-05 -1.5128051859369731e-05 0 -4.4328179442505939e-05 -1.9280392560515007e-05 0 -3.6778392073960706e-05 -1.5021171925873829e-05 0 -6.7713109191522869e-05 2.6554737394965381e-05 0 -5.5452350338987147e-05 1.8728094775182125e-05 0 -5.3673843150070066e-05 1.8937994150835938e-05 0 -2.8227949903240938e-05 3.83789714925765e-05 0 -3.2810386514655276e-05 5.5986303251593381e-05 0 -4.5380517068124065e-05 5.9974581225819399e-05 0 -1.6339017992117728e-05 -4.3158185601759006e-06 0 -2.06030647664763e-05 -6.6033777351715424e-06 0 -1.9048090212820847e-05 -6.1204395561866291e-06 0 -5.5617594443074794e-05 -5.4408936075792168e-05 0 -5.2229161543526119e-05 -5.1511465984071332e-05 0 -5.2481216845348143e-05 -4.8981619190413139e-05 0 -5.5617594443074794e-05 -5.4408936075792168e-05 0 -5.2481216845348143e-05 -4.8981619190413139e-05 0 -5.46325819034491e-05 -5.1913053416688386e-05 0 -3.4615637543224681e-05 -4.2387442737406855e-05 0 -3.2327598013865495e-05 -3.9429201693837384e-05 0 -3.4728222475189201e-05 -4.6277346707406035e-05 0 -3.4615637543224681e-05 -4.2387442737406855e-05 0 -3.4728222475189201e-05 -4.6277346707406035e-05 0 -3.5973621758958802e-05 -4.8624496799767883e-05 0 -4.9717349215734196e-05 -4.5832738698151629e-05 0 -4.6053416282720481e-05 -4.467939611069917e-05 0 -4.7597782139978846e-05 -4.2892557255869597e-05 0 -3.4332337777746707e-05 -4.5798103738766069e-05 0 -3.3722205464936474e-05 -4.2866804442160447e-05 0 -3.576714129478931e-05 -4.6826808910474237e-05 0 -2.1276258162583183e-05 -2.4748222878016669e-05 0 -2.5747810342240517e-05 -3.0667339250842421e-05 0 -2.4162200383707992e-05 -2.8594440099104909e-05 0 -4.8956593456312653e-05 -3.8027474243213202e-05 0 -5.0778118823664694e-05 -4.2554381936987279e-05 0 -4.7139283879850742e-05 -3.7937087387526448e-05 0 -5.5589774999290514e-06 1.178653107328007e-06 0 -1.5787736824745078e-05 -6.8999822733393989e-06 0 -1.0279775233281625e-05 -9.6482975217110285e-06 0 -4.6324346935523976e-05 0.00030367874987105912 0 -2.8195077111340612e-05 0.00032404109803195594 0 -5.1473024742831732e-05 0.00033211679650852621 0 -0.00010129142216541405 0.00030571873911502403 0 -9.7299669812868573e-05 0.00033343234759960322 0 -0.00012295920588319291 0.00032800970678322768 0 -7.1233514787697144e-05 -0.00014677325103284612 0 -8.0598724440290461e-05 -0.00015698882753253538 0 -6.962170855491086e-05 -0.00015942509537179936 0 -4.8707808112015428e-05 -0.00014647036037740644 0 -5.0956548557052631e-05 -0.00015905743454975546 0 -4.1794552811636298e-05 -0.00015534839329759401 0 -7.6041847099184949e-06 6.0959318054484154e-07 0 -6.0706591025183802e-06 1.019546863042628e-06 0 -6.7727316157809936e-06 4.5394293890898559e-07 0 -4.6324346935523976e-05 0.00030367874987105912 0 -2.1122309418014467e-05 0.00029834834368492545 0 -2.8195077111340608e-05 0.00032404109803195594 0 -7.1233514787697144e-05 -0.00014677325103284612 0 -8.2931488161788969e-05 -0.00014600787130051728 0 -8.0598724440290461e-05 -0.00015698882753253538 0 -2.4646507620566127e-05 -4.239256070322625e-06 0 -2.1989305235089211e-05 2.4814878846872168e-07 0 -1.9595550782039875e-05 -3.1660494419844415e-07 0 -0.00010129142216541405 0.00030571873911502403 0 -0.00012295920588319291 0.00032800970678322768 0 -0.0001281238579138472 0.00030280656383130286 0 -4.8707808112015428e-05 -0.00014647036037740644 0 -4.1794552811636298e-05 -0.00015534839329759401 0 -3.8584974441715694e-05 -0.00014314773073899491 0 -3.6032250513686479e-05 -7.1786232962959613e-05 0 -2.7103903585027745e-05 -6.2773940691766809e-05 0 -3.3324994723192367e-05 -5.5300838001495374e-05 0 -3.6284631353860007e-05 -1.95502347987939e-05 0 -3.6877208928294593e-05 -2.1817670770866058e-05 0 -3.3413775051358467e-05 -1.5651888266617666e-05 0 -3.4107987718241917e-05 -1.8273261909622312e-05 0 -3.3413775051358467e-05 -1.5651888266617666e-05 0 -3.6877208928294593e-05 -2.1817670770866058e-05 0 -1.2863318720012625e-05 4.5950622405305184e-06 0 -1.4635752057844979e-05 2.9027900004115806e-06 0 -1.0205251135001424e-05 2.6747841997850989e-06 0 -6.5183859287802753e-05 0.00012360530059272114 0 -4.4251139471356597e-05 0.00011548074533978306 0 -5.349428349903905e-05 0.00014601283141715737 0 -8.4336214061334576e-05 -7.6216312622155353e-05 0 -7.6260762534074002e-05 -7.9069398794013801e-05 0 -7.000851575642979e-05 -6.6513018522343766e-05 0 -1.4160861792647112e-05 1.9249897326552643e-05 0 -2.2804478731939393e-05 1.894528671243305e-05 0 -1.447662962196041e-05 1.2966845019939803e-05 0 -1.9679718479552094e-05 1.1372001762590918e-05 0 -1.447662962196041e-05 1.2966845019939803e-05 0 -2.2804478731939393e-05 1.894528671243305e-05 0 -7.031389449072602e-06 4.08635629649343e-06 0 -8.085257448633995e-06 4.3369606972554848e-06 0 -8.2507247359554821e-06 6.7746166916914796e-06 0 -3.7682575835768862e-05 -3.5604376906933405e-05 0 -3.7832565682086622e-05 -3.8898053059606743e-05 0 -3.46268726505424e-05 -3.5066725744020299e-05 0 -3.5916834226861242e-05 -4.0238439143608152e-05 0 -3.46268726505424e-05 -3.5066725744020299e-05 0 -3.7832565682086622e-05 -3.8898053059606743e-05 0 -0.00010871991505193891 7.1646653011881207e-05 0 -9.5224511264259412e-05 5.22714540274308e-05 0 -8.4553810284672612e-05 5.6240575199375506e-05 0 -5.9207996533576671e-05 -3.168820955803977e-05 0 -6.6496928750859133e-05 -4.0465048415090736e-05 0 -5.4807633564778337e-05 -3.2989174092389971e-05 0 -2.3371797397657979e-09 -4.3355579856939543e-10 0 -1.9566897097702311e-09 -3.3545991679150672e-10 0 -1.8321872381404614e-06 -6.0145421419001502e-07 0 -2.1052971758376036e-09 2.7909816738505576e-10 0 -2.3749192645468827e-09 2.5865081123003672e-10 0 -2.0721756417777371e-06 4.3861683306393886e-07 0 -1.0632690971542352e-05 8.397481511211389e-06 0 -7.9229241085632868e-06 5.4559989486121761e-06 0 -8.8507946781474782e-06 8.4339716987214964e-06 0 -9.4971041164664934e-06 5.9787442242655613e-06 0 -8.2507247359554821e-06 6.7746166916914796e-06 0 -8.085257448633995e-06 4.3369606972554848e-06 0 -7.031389449072602e-06 4.08635629649343e-06 0 -7.9229241085632868e-06 5.4559989486121752e-06 0 -6.8449991227519845e-06 3.6765564922538721e-06 0 -1.4595841018802279e-05 8.7546129271989373e-07 0 -1.9770168942620299e-05 2.7786986362911645e-06 0 -1.5379790849692052e-05 1.8227208800977456e-06 0 -1.1674055025868025e-05 -2.470902744653243e-06 0 -1.1626850686805547e-05 -3.1625018323390301e-06 0 -1.5033324968113528e-05 -4.1799002647628655e-06 0 -2.8055334764900569e-05 0.00014351989086073963 0 -2.217272437777988e-05 0.00011004983233036142 0 -7.2634753073657458e-06 0.00013292460460510952 0 -1.4595841018802279e-05 8.7546129271989373e-07 0 -1.5379790849692049e-05 1.8227208800977451e-06 0 -1.1276475075540832e-05 3.3386163322281794e-07 0 -1.1674055025868025e-05 -2.470902744653243e-06 0 -8.8715526657977988e-06 -1.7822373283631213e-06 0 -1.1626850686805547e-05 -3.1625018323390301e-06 0 -4.3372392450992281e-05 -3.5535848684056054e-05 0 -4.523683504117483e-05 -3.8885230672336292e-05 0 -4.2872657502524979e-05 -3.9019035125452494e-05 0 -3.6570144841999503e-05 7.9962550425756655e-05 0 -2.1529467439035406e-05 5.0716198945802947e-05 0 -1.6512864461363224e-05 8.1138090623298452e-05 0 -7.4766039421930107e-06 2.6662168320478938e-06 0 -6.8449991227519845e-06 3.6765564922538721e-06 0 -7.9229241085632885e-06 5.4559989486121761e-06 0 -3.1291105893714142e-05 -3.4472368749804486e-05 0 -2.7685885259708766e-05 -3.1075102228249781e-05 0 -3.0185323132333469e-05 -2.9221857137752875e-05 0 -3.7400153709355325e-09 -3.934611938351046e-10 0 -2.9281792268999014e-09 -6.2309736690340493e-10 0 -2.8671189150916703e-06 -9.3228712566831253e-07 0 -2.7493773464657491e-09 2.5685990567361936e-10 0 -3.2372744399902172e-09 3.0466616811837456e-11 0 -2.6527586660076877e-06 2.0282721070515298e-07 0 -2.4357407743203056e-05 -9.4207774200703134e-06 0 -3.0745618254256429e-05 -1.192400737033189e-05 0 -2.5020109724464657e-05 -8.8266814305216998e-06 0 -4.4380975128461904e-05 1.3388850955371471e-05 0 -3.4208749909981526e-05 9.8451185692659064e-06 0 -3.5640663542679696e-05 8.9242781368421182e-06 0 -3.4587115750453425e-05 -2.7169285906868818e-05 0 -3.8044089810687936e-05 -2.4442848218098391e-05 0 -4.1500282393767989e-05 -3.1439279733860175e-05 0 -1.8746146910435209e-05 -5.4251081458320598e-05 0 -2.5539417833013805e-05 -4.9113888186821273e-05 0 -2.7103903585027745e-05 -6.2773940691766795e-05 0 -2.1183621991976171e-05 -5.1155267046891018e-06 0 -2.1093752625472662e-05 -8.1069829756108033e-06 0 -2.5051814240924662e-05 -1.04665926300424e-05 0 -1.1182977279135259e-05 9.4383725657954472e-07 0 -1.0848179413251808e-05 3.5660819241691056e-06 0 -8.9412970213359963e-06 2.2099579014239939e-06 0 -1.330911151168582e-05 1.0904423966674861e-06 0 -1.0848179413251808e-05 3.5660819241691056e-06 0 -1.1182977279135259e-05 9.4383725657954472e-07 0 -9.0871652284115916e-06 1.0372387142645709e-05 0 -1.0155891281126916e-05 1.2897600044401921e-05 0 -8.8507946781474782e-06 8.4339716987214964e-06 0 -1.0632690971542352e-05 8.397481511211389e-06 0 -8.8507946781474782e-06 8.4339716987214964e-06 0 -1.0155891281126916e-05 1.2897600044401921e-05 0 -3.570280128325625e-05 -4.3682513835171419e-05 0 -3.7979473820559845e-05 -4.6671509077431239e-05 0 -3.576714129478931e-05 -4.6826808910474237e-05 0 -4.3039015768258931e-05 -2.736291899262069e-05 0 -4.0055226749878519e-05 -2.5041573652531361e-05 0 -3.8540616424126411e-05 -2.2128889169112853e-05 0 -2.2992848646654902e-05 -1.2367460150136378e-05 0 -2.3760159906605856e-05 -1.7213069710129338e-05 0 -2.7741871845592714e-05 -1.5639988249198923e-05 0 -2.4680038319081135e-05 -2.2663266025710934e-05 0 -2.7741871845592717e-05 -1.5639988249198923e-05 0 -2.3760159906605856e-05 -1.7213069710129338e-05 0 -1.8261093114843835e-05 -7.4160535754279294e-06 0 -2.435740774320306e-05 -9.4207774200703134e-06 0 -2.0570006899549384e-05 -7.2485545018360795e-06 0 -3.4208749909981526e-05 9.8451185692659064e-06 0 -2.4968817541839851e-05 7.4007137646726268e-06 0 -2.8636855126319006e-05 6.82933916403008e-06 0 -3.9775534151173316e-05 -5.1714044486664427e-05 0 -3.7349116469317451e-05 -5.1990687873717366e-05 0 -3.8920746731774722e-05 -4.9467581396180811e-05 0 -2.2804478731939393e-05 1.894528671243305e-05 0 -2.1072468882926434e-05 2.558937539488217e-05 0 -3.0680743894871102e-05 2.8856248921796085e-05 0 -5.5163625445408186e-06 1.6186142442450009e-06 0 -5.955384090026703e-06 2.5889033580562333e-06 0 -4.9025506684022378e-06 1.4668908812939551e-06 0 -6.3537935228291699e-06 -5.1489146181936153e-07 0 -9.7548892629366488e-06 -3.5210420227611218e-07 0 -1.1276475075540832e-05 3.3386163322281794e-07 0 -5.1040986859241047e-06 -6.1844626856397327e-07 0 -8.8715526657977988e-06 -1.7822373283631215e-06 0 -8.0725155767178833e-06 -1.1550304782760038e-06 0 -6.3800272071512378e-06 2.907603930862218e-07 0 -6.3448847940659903e-06 1.1597045573438353e-07 0 -7.9606786754267366e-06 -3.9635020701614649e-07 0 -2.1183621991976171e-05 -5.1155267046891018e-06 0 -2.2902931070128726e-05 -4.3740409701381148e-06 0 -1.9595550782039875e-05 -3.1660494419844415e-07 0 -3.1365579283040422e-05 -3.8890923420881503e-05 0 -3.2944666913700088e-05 -3.874902254568463e-05 0 -3.3722205464936474e-05 -4.2866804442160447e-05 0 -9.5264954596029629e-06 -1.1154703119773409e-06 0 -7.9606786754267349e-06 -3.9635020701614644e-07 0 -6.3448847940659903e-06 1.1597045573438353e-07 0 -0.00015014226572078769 0.00021334754645294807 0 -0.00011904639153094394 0.00019651244652757474 0 -0.00012738971174013842 0.00022558743184735916 0 -2.1650687045750442e-05 -9.6802296017177105e-05 0 -3.3106741940649642e-05 -9.2167477097112861e-05 0 -3.249701715993499e-05 -0.00010541534844307205 0 -2.0114697884952492e-05 -8.2380185617355166e-05 0 -2.9510887822101769e-05 -7.8251226587335937e-05 0 -3.3106741940649642e-05 -9.2167477097112861e-05 0 -3.0110399165878114e-05 -1.2581012322158636e-05 0 -2.7160669756718999e-05 -7.1454761415312491e-06 0 -2.9466462618991663e-05 -1.0568674248198707e-05 0 -4.3039015768258931e-05 -2.736291899262069e-05 0 -4.3285381599534174e-05 -2.9558894255310536e-05 0 -4.0055226749878519e-05 -2.5041573652531361e-05 0 -1.1785875033860923e-05 -1.8838203630471058e-06 0 -1.5440505054418414e-05 -4.7930674727770592e-06 0 -1.3480780417798773e-05 -2.4288082410866791e-06 0 -2.4646507620566127e-05 -4.239256070322625e-06 0 -1.9595550782039875e-05 -3.1660494419844415e-07 0 -2.2902931070128723e-05 -4.3740409701381139e-06 0 -9.0357076339912462e-07 0.00031996591021686723 0 -1.828451136340445e-05 0.00033626973775142157 0 -2.8195077111340608e-05 0.00032404109803195594 0 -9.4146853156407977e-05 -0.00015848680958183056 0 -8.6076958236604587e-05 -0.00016366754956337228 0 -8.0598724440290461e-05 -0.00015698882753253538 0 -3.0878869262453364e-05 -0.00015286845612161326 0 -4.1794552811636298e-05 -0.00015534839329759401 0 -3.8056390020280316e-05 -0.00016056411361802761 0 -0.0001538070931108596 0.00033136608870337736 0 -0.00012295920588319291 0.00032800970678322768 0 -0.000135424127812279 0.00034320124367894698 0 -1.4013096374113259e-05 -1.2534966572090412e-06 0 -1.1233974622303383e-05 -5.3945799524041566e-07 0 -1.3480780417798773e-05 -2.4288082410866791e-06 0 -1.1785875033860923e-05 -1.8838203630471058e-06 0 -1.3480780417798773e-05 -2.4288082410866791e-06 0 -1.1233974622303383e-05 -5.3945799524041566e-07 0 -1.8645207911676643e-05 -9.0190251649991835e-06 0 -1.5440505054418414e-05 -4.7930674727770584e-06 0 -1.6210415623922979e-05 -6.0832269769280119e-06 0 -5.1970913682246065e-05 2.1786312639072655e-05 0 -5.3673843150070066e-05 1.8937994150835938e-05 0 -4.0226876611125768e-05 1.3191538763357542e-05 0 -4.3468912068890124e-05 1.2500912973464057e-05 0 -4.0226876611125768e-05 1.3191538763357542e-05 0 -5.3673843150070066e-05 1.8937994150835938e-05 0 -1.9679718479552094e-05 1.1372001762590918e-05 0 -2.4098449267379248e-05 9.7861725949984493e-06 0 -1.7384178528348604e-05 6.4690288761578865e-06 0 -2.1017506664767201e-05 -9.5138628119932253e-06 0 -1.639086479930273e-05 -5.6402675100613693e-06 0 -1.7950219392716636e-05 -6.0608340165519193e-06 0 -2.2992848646654902e-05 -1.2367460150136378e-05 0 -2.1656907624140491e-05 -1.3796128040938823e-05 0 -2.3760159906605856e-05 -1.7213069710129338e-05 0 -1.1674055025868025e-05 -2.470902744653243e-06 0 -9.2744695958714061e-06 -1.221554171159455e-06 0 -8.0725155767178833e-06 -1.1550304782760038e-06 0 -5.5759538297827039e-06 -2.8129255752544086e-07 0 -8.0725155767178833e-06 -1.1550304782760038e-06 0 -9.2744695958714078e-06 -1.2215541711594552e-06 0 -6.3066471153961139e-06 -9.4585121817505216e-07 0 -1.0218900238212559e-05 -2.3229219541573342e-07 0 -9.7548892629366488e-06 -3.5210420227611207e-07 0 -1.4595841018802279e-05 8.7546129271989373e-07 0 -9.7548892629366471e-06 -3.5210420227611223e-07 0 -1.0218900238212559e-05 -2.3229219541573342e-07 0 -6.687058342119272e-05 -7.5380596912767736e-05 0 -7.3740726081402653e-05 -8.9353160461146808e-05 0 -6.2895916487861188e-05 -8.3256372866094558e-05 0 -6.4438898932778796e-05 -9.5663604669696131e-05 0 -6.2895916487861188e-05 -8.3256372866094558e-05 0 -7.3740726081402653e-05 -8.9353160461146808e-05 0 -2.5459411599969887e-06 -9.1731002010963573e-07 0 -1.8321872381404614e-06 -6.0145421419001502e-07 0 -4.2839198346651203e-06 -7.1137810518888005e-07 0 -2.9639590987957265e-06 -4.3125682148307006e-07 0 -4.2839198346651203e-06 -7.1137810518888005e-07 0 -1.8321872381404614e-06 -6.0145421419001502e-07 0 -3.6740877201151974e-06 5.4233215132375148e-07 0 -2.0721756417777371e-06 4.3861683306393886e-07 0 -4.5114077348603212e-06 3.5989490172077413e-07 0 -2.5874146802596142e-06 3.7559361921979853e-07 0 -4.5114077348603212e-06 3.5989490172077413e-07 0 -2.0721756417777371e-06 4.3861683306393886e-07 0 -7.1271028829833624e-05 0.00025932379598180201 0 -5.3132130695465293e-05 0.00024191577205284271 0 -5.0820897206168367e-05 0.0002707549845787858 0 -5.8167516827503219e-05 -0.00012540552219914933 0 -6.4721184115778632e-05 -0.00011804837161904803 0 -6.7653688531360274e-05 -0.00013154340498226693 0 -1.1110077851932897e-05 -1.8391119658090958e-06 0 -8.5857875052792929e-06 -8.5225935596525167e-07 0 -9.2744695958714078e-06 -1.2215541711594552e-06 0 -1.0643795786792592e-05 8.9401058111226213e-07 0 -1.0218900238212559e-05 -2.3229219541573342e-07 0 -8.3855040627441762e-06 -1.2757631199649535e-07 0 -2.1017506664767201e-05 -9.5138628119932253e-06 0 -2.13160540287347e-05 -1.1783928467242604e-05 0 -1.8001463076144002e-05 -7.7539437349431899e-06 0 -1.1674055025868025e-05 -2.470902744653243e-06 0 -1.3093875193913191e-05 -2.7550186975827479e-06 0 -9.2744695958714078e-06 -1.2215541711594552e-06 0 -1.4595841018802279e-05 8.7546129271989373e-07 0 -1.0218900238212559e-05 -2.3229219541573342e-07 0 -1.4842652327734735e-05 1.2131844451499738e-06 0 -2.4680038319081135e-05 -2.2663266025710934e-05 0 -3.0955303150614316e-05 -1.7135999270229471e-05 0 -2.7741871845592714e-05 -1.5639988249198923e-05 0 -1.1785875033860923e-05 -1.8838203630471058e-06 0 -1.376995049474237e-05 -3.7632234476416235e-06 0 -1.5440505054418414e-05 -4.7930674727770592e-06 0 -4.1677809431012965e-09 -9.6919336363123657e-10 0 -3.7400153709355325e-09 -3.934611938351046e-10 0 -3.0832432132566962e-06 -7.1071983076854779e-07 0 -3.2372744399902172e-09 3.0466616811837456e-11 0 -3.3845788340183986e-09 3.5135729665427614e-10 0 -2.6258895836171848e-06 -2.4387194341629399e-08 0 -1.4160861792647112e-05 1.9249897326552643e-05 0 -1.447662962196041e-05 1.2966845019939803e-05 0 -1.0155891281126916e-05 1.2897600044401921e-05 0 -4.0115199813018058e-05 -4.6556357597177136e-05 0 -4.1066259944677724e-05 -4.918290167134143e-05 0 -3.8920746731774722e-05 -4.9467581396180811e-05 0 -2.1017506664767201e-05 -9.5138628119932253e-06 0 -2.2219419941125827e-05 -8.9144845409140157e-06 0 -2.6240849774787107e-05 -1.2704235319406126e-05 0 -3.3324994723192367e-05 -5.5300838001495374e-05 0 -2.7103903585027745e-05 -6.2773940691766795e-05 0 -2.5539417833013805e-05 -4.9113888186821273e-05 0 -1.4013096374113259e-05 -1.2534966572090412e-06 0 -1.1182977279135259e-05 9.4383725657954472e-07 0 -1.1233974622303383e-05 -5.3945799524041566e-07 0 -1.8184113604597074e-05 -6.4820238620925793e-06 0 -1.5720052184557082e-05 -3.84848758072433e-06 0 -1.5440505054418414e-05 -4.7930674727770592e-06 0 -1.0098005607257455e-05 9.8855835521726519e-07 0 -1.4931442525098588e-05 3.4413273460329177e-06 0 -7.1874523450623463e-06 1.631341320137261e-06 0 -7.6773251505098979e-06 -2.0464209832045373e-06 0 -5.3949199840870185e-06 -2.0542882920464575e-06 0 -1.1090012965590128e-05 -4.1139812510466967e-06 0 -2.483312474702269e-05 -1.686634954392471e-05 0 -2.4530400064861356e-05 -1.9649401485949512e-05 0 -2.1656907624140491e-05 -1.3796128040938823e-05 0 -8.9412970213359963e-06 2.2099579014239939e-06 0 -8.9630035408091326e-06 7.4428580585292425e-07 0 -1.1182977279135259e-05 9.4383725657954472e-07 0 -1.4760163039156678e-05 -4.6699663109484018e-06 0 -1.639086479930273e-05 -5.6402675100613702e-06 0 -1.8001463076144002e-05 -7.7539437349431899e-06 0 -3.6056832628756376e-05 -1.5904289743195286e-05 0 -3.7663040192839361e-05 -1.9700857147352683e-05 0 -3.1234035470394816e-05 -1.4817541115480278e-05 0 -0.00014603974206987326 0.00018225925021002492 0 -0.0001203904955259889 0.00016839421906203906 0 -0.00011904639153094394 0.00019651244652757474 0 -2.483312474702269e-05 -1.686634954392471e-05 0 -2.5519557665723977e-05 -1.4501722565183716e-05 0 -2.9962000656037879e-05 -1.9867052887944131e-05 0 -2.9466462618991663e-05 -1.0568674248198707e-05 0 -3.3413775051358467e-05 -1.5651888266617666e-05 0 -3.1783470623292375e-05 -1.4391590179516784e-05 0 -2.1017506664767201e-05 -9.5138628119932253e-06 0 -2.6240849774787107e-05 -1.2704235319406126e-05 0 -2.5519557665723977e-05 -1.4501722565183716e-05 0 -1.1233974622303383e-05 -5.3945799524041566e-07 0 -1.1182977279135259e-05 9.4383725657954472e-07 0 -8.9630035408091326e-06 7.4428580585292425e-07 0 -3.6284631353860007e-05 -1.95502347987939e-05 0 -3.8540616424126411e-05 -2.2128889169112853e-05 0 -4.0055226749878519e-05 -2.5041573652531361e-05 0 -1.4160861792647112e-05 1.9249897326552643e-05 0 -8.9244016871643756e-06 2.0630518405522537e-05 0 -1.428922243756769e-05 2.8452252721416376e-05 0 -2.1017506664767201e-05 -9.5138628119932253e-06 0 -1.7950219392716636e-05 -6.0608340165519193e-06 0 -2.2219419941125827e-05 -8.9144845409140157e-06 0 -0.00015259260111932861 0.000244178454997951 0 -0.00015014226572078769 0.00021334754645294807 0 -0.00012738971174013842 0.00022558743184735916 0 -2.1650687045750442e-05 -9.6802296017177105e-05 0 -3.249701715993499e-05 -0.00010541534844307205 0 -2.36103690464689e-05 -0.00011134636259344011 0 -1.9051817354247104e-05 -6.820646414568947e-05 0 -2.9510887822101769e-05 -7.8251226587335937e-05 0 -2.0114697884952492e-05 -8.2380185617355166e-05 0 -3.7766027870052698e-05 2.4224296392493123e-05 0 -5.2724470221861528e-05 2.8918838406473336e-05 0 -4.3023085015222433e-05 1.9730747689054631e-05 0 -5.5589774999290514e-06 1.178653107328007e-06 0 -1.5528579614953148e-05 9.8947162139202011e-06 0 -1.5787736824745078e-05 -6.8999822733393989e-06 0 -3.6056832628756376e-05 -1.5904289743195286e-05 0 -3.6778392073960706e-05 -1.5021171925873829e-05 0 -4.2296880440521883e-05 -1.8768362196453301e-05 0 -5.1970913682246065e-05 2.1786312639072655e-05 0 -6.3265284575567157e-05 2.5892846418275633e-05 0 -5.3673843150070066e-05 1.8937994150835938e-05 0 -3.6056832628756376e-05 -1.5904289743195286e-05 0 -4.2296880440521883e-05 -1.8768362196453301e-05 0 -4.4059788810874644e-05 -2.1658471103602934e-05 0 -5.1970913682246065e-05 2.1786312639072655e-05 0 -6.5405085890067412e-05 3.1972866014295816e-05 0 -6.3265284575567157e-05 2.5892846418275633e-05 0 -7.6773251505098979e-06 -2.0464209832045373e-06 0 -3.7564385551222929e-06 -7.7815927732768878e-07 0 -5.3949199840870185e-06 -2.0542882920464575e-06 0 -1.0098005607257455e-05 9.8855835521726519e-07 0 -7.1874523450623463e-06 1.631341320137261e-06 0 -4.8897408321629444e-06 5.3176473280429991e-08 0 -1.8184113604597074e-05 -6.4820238620925793e-06 0 -2.0179088557276063e-05 -1.0063516440854059e-05 0 -2.1093752625472662e-05 -8.1069829756108033e-06 0 -2.2992848646654902e-05 -1.2367460150136378e-05 0 -2.1093752625472662e-05 -8.1069829756108033e-06 0 -2.0179088557276063e-05 -1.0063516440854059e-05 0 -5.0778118823664694e-05 -4.2554381936987279e-05 0 -4.9908557317435552e-05 -4.2324330165896715e-05 0 -4.7139283879850742e-05 -3.7937087387526448e-05 0 -2.4162200383707992e-05 -2.8594440099104909e-05 0 -2.5747810342240517e-05 -3.0667339250842421e-05 0 -2.8140078027868575e-05 -3.4659743833174581e-05 0 -1.0279775233281625e-05 -9.6482975217110285e-06 0 -1.5787736824745078e-05 -6.899982273339398e-06 0 -1.7203724082814094e-05 -1.5423883197288871e-05 0 -2.1276258162583183e-05 -2.4748222878016669e-05 0 -2.2647798974864884e-05 -2.5887881179111376e-05 0 -2.5747810342240517e-05 -3.0667339250842421e-05 0 -4.8956593456312653e-05 -3.8027474243213202e-05 0 -4.7139283879850742e-05 -3.7937087387526448e-05 0 -4.5565946905508391e-05 -3.3904744593552139e-05 0 -2.1017506664767201e-05 -9.5138628119932253e-06 0 -1.8001463076144002e-05 -7.7539437349431882e-06 0 -1.639086479930273e-05 -5.6402675100613693e-06 0 -1.8645207911676643e-05 -9.0190251649991835e-06 0 -2.1656907624140491e-05 -1.3796128040938823e-05 0 -2.0179088557276063e-05 -1.0063516440854059e-05 0 -2.2992848646654902e-05 -1.2367460150136378e-05 0 -2.0179088557276063e-05 -1.0063516440854059e-05 0 -2.1656907624140491e-05 -1.3796128040938823e-05 0 -1.4013096374113259e-05 -1.2534966572090412e-06 0 -1.7802327192214576e-05 -4.2585850350995452e-06 0 -1.68203181980694e-05 -1.0233800842910034e-06 0 -0.00014603974206987326 0.00018225925021002492 0 -0.00013982566627626135 0.00015139929826589389 0 -0.0001203904955259889 0.00016839421906203906 0 -2.4646507620566127e-05 -4.239256070322625e-06 0 -2.2902931070128723e-05 -4.3740409701381139e-06 0 -2.615383869290765e-05 -8.0745219251805876e-06 0 -2.8227949903240938e-05 3.83789714925765e-05 0 -2.1072468882926434e-05 2.558937539488217e-05 0 -1.428922243756769e-05 2.8452252721416376e-05 0 -1.4160861792647112e-05 1.9249897326552643e-05 0 -1.428922243756769e-05 2.8452252721416376e-05 0 -2.1072468882926434e-05 2.558937539488217e-05 0 -1.8746146910435209e-05 -5.4251081458320598e-05 0 -2.7103903585027745e-05 -6.2773940691766795e-05 0 -1.9051817354247104e-05 -6.820646414568947e-05 0 -8.1171561485817624e-05 3.720839011593029e-05 0 -6.3265284575567157e-05 2.5892846418275633e-05 0 -6.5405085890067412e-05 3.1972866014295816e-05 0 -5.1704784868848304e-05 -2.4626377261703716e-05 0 -4.4059788810874637e-05 -2.1658471103602931e-05 0 -4.2296880440521883e-05 -1.8768362196453301e-05 0 -2.1183621991976171e-05 -5.1155267046891018e-06 0 -2.615383869290765e-05 -8.0745219251805859e-06 0 -2.2902931070128723e-05 -4.3740409701381139e-06 0 -8.9535472273504987e-05 0.00019538373753330538 0 -0.00011904639153094394 0.00019651244652757474 0 -0.00010117439618806162 0.0001734579370175887 0 -8.9535472273504987e-05 0.00019538373753330538 0 -0.00010703321743991543 0.00021643972246364259 0 -0.00011904639153094394 0.00019651244652757474 0 -4.4472119721241679e-05 -9.3786753739218053e-05 0 -3.9844093676501852e-05 -0.00010258039362675097 0 -3.3106741940649642e-05 -9.2167477097112861e-05 0 -4.4472119721241679e-05 -9.3786753739218053e-05 0 -3.3106741940649636e-05 -9.2167477097112848e-05 0 -3.7675262477103658e-05 -8.3745928805443911e-05 0 -2.36103690464689e-05 -0.00011134636259344011 0 -3.3240428809296604e-05 -0.00011835414366187843 0 -2.605206462490893e-05 -0.00012595409222230117 0 -0.0001535949756628182 0.0002743401053221093 0 -0.00015259260111932861 0.000244178454997951 0 -0.00013163258512850239 0.00025287718191494999 0 -6.7488046921594329e-06 -1.9787449152688813e-07 0 -5.5262683112672371e-06 -2.7023881807441424e-09 0 -8.5857875052792946e-06 -8.5225935596525177e-07 0 -6.1243036284932552e-06 -5.8056219981714612e-07 0 -8.3855040627441762e-06 -1.2757631199649535e-07 0 -5.3623761649452668e-06 -1.0427336362270326e-06 0 -4.4472119721241679e-05 -9.3786753739218053e-05 0 -5.2161608092144839e-05 -9.4988813743842809e-05 0 -4.7854389731768728e-05 -0.00010637803496392956 0 -4.4472119721241679e-05 -9.3786753739218053e-05 0 -4.4829462892333859e-05 -8.2414525305938912e-05 0 -5.2161608092144839e-05 -9.4988813743842809e-05 0 -5.7735733871930241e-05 -0.00010895695235963894 0 -4.7854389731768728e-05 -0.00010637803496392956 0 -5.2161608092144839e-05 -9.4988813743842809e-05 0 -5.3788456542514643e-05 -8.2513564801875761e-05 0 -5.2161608092144839e-05 -9.4988813743842809e-05 0 -4.4829462892333859e-05 -8.2414525305938912e-05 0 -8.9535472273504987e-05 0.00019538373753330538 0 -6.9898264043674146e-05 0.00019711572728865797 0 -8.90716733349162e-05 0.00022330638032318464 0 -6.5948700543682254e-05 0.00022276118068135275 0 -8.90716733349162e-05 0.00022330638032318464 0 -6.9898264043674146e-05 0.00019711572728865797 0 -3.2372744399902172e-09 3.0466616811837456e-11 0 -2.6258895836171848e-06 -2.4387194341629399e-08 0 -2.6527586660076877e-06 2.0282721070515298e-07 0 -3.7400153709355325e-09 -3.934611938351046e-10 0 -2.8671189150916703e-06 -9.3228712566831253e-07 0 -3.0832432132566962e-06 -7.1071983076854779e-07 0 -5.826891047210137e-05 -4.2654312129998255e-05 0 -4.8008664503973783e-05 -3.2421819738499513e-05 0 -5.4807633564778337e-05 -3.2989174092389971e-05 0 -8.8654753050060306e-05 7.6480179443216037e-05 0 -8.4553810284672612e-05 5.6240575199375506e-05 0 -7.1031177007764177e-05 5.4411623772029456e-05 0 -2.517179274362276e-05 -8.8576773288987721e-06 0 -3.1368725586394904e-05 -1.231287783598205e-05 0 -2.932787446624814e-05 -1.1950366770378594e-05 0 -7.6041847099184949e-06 6.0959318054484154e-07 0 -9.1682680281242051e-06 -2.8305866364108934e-07 0 -8.9630035408091326e-06 7.4428580585292425e-07 0 -3.7138215051062016e-05 -4.8826446423907738e-05 0 -3.576714129478931e-05 -4.6826808910474237e-05 0 -3.7979473820559845e-05 -4.6671509077431239e-05 0 -2.6812734295769747e-05 5.2695604358490159e-06 0 -3.2245785774013707e-05 7.5001391512794123e-06 0 -3.5640663542679696e-05 8.9242781368421182e-06 0 -4.3468912068890124e-05 1.2500912973464057e-05 0 -3.5640663542679696e-05 8.9242781368421182e-06 0 -3.2245785774013707e-05 7.5001391512794131e-06 0 -4.3870989397895782e-06 8.2136835655665488e-07 0 -4.0565642266776762e-06 3.1427400059848273e-08 0 -3.0384236708603564e-06 -2.0943303050492662e-09 0 -1.4557950295440181e-05 -1.6011861278925186e-05 0 -2.0942747546027715e-05 -2.1924201866251497e-05 0 -1.8012750878973368e-05 -2.0653849014720419e-05 0 -5.1704784868848304e-05 -2.4626377261703716e-05 0 -5.1087089779095773e-05 -2.7251457808511068e-05 0 -4.4059788810874644e-05 -2.1658471103602934e-05 0 -8.1171561485817624e-05 3.720839011593029e-05 0 -6.5405085890067399e-05 3.1972866014295816e-05 0 -7.8568480831583287e-05 4.2994204334569124e-05 0 -3.2780062555369692e-05 -1.8710250470322314e-05 0 -3.4207984249541142e-05 -1.7226517696824297e-05 0 -3.0955303150614316e-05 -1.7135999270229471e-05 0 -1.4595841018802279e-05 8.7546129271989373e-07 0 -1.4842652327734735e-05 1.2131844451499738e-06 0 -2.1399983754668716e-05 3.1632875079205528e-06 0 -1.8405955696596382e-05 3.2337584886521532e-06 0 -2.1399983754668716e-05 3.1632875079205532e-06 0 -1.4842652327734735e-05 1.2131844451499738e-06 0 -3.6570144841999503e-05 7.9962550425756655e-05 0 -3.2810386514655276e-05 5.5986303251593381e-05 0 -2.1529467439035406e-05 5.0716198945802947e-05 0 -3.4208749909981526e-05 9.8451185692659064e-06 0 -2.8636855126319006e-05 6.82933916403008e-06 0 -3.5640663542679696e-05 8.9242781368421182e-06 0 -2.4357407743203056e-05 -9.4207774200703134e-06 0 -2.5020109724464657e-05 -8.8266814305216998e-06 0 -2.0570006899549384e-05 -7.2485545018360795e-06 0 -3.7682575835768862e-05 -3.5604376906933405e-05 0 -3.7018653785035905e-05 -3.1757352634746254e-05 0 -4.041360688869582e-05 -3.5654828605171728e-05 0 -3.9307111861794928e-05 -3.1393217887888371e-05 0 -4.041360688869582e-05 -3.5654828605171728e-05 0 -3.7018653785035905e-05 -3.1757352634746254e-05 0 -1.4013096374113259e-05 -1.2534966572090412e-06 0 -1.330911151168582e-05 1.0904423966674861e-06 0 -1.1182977279135259e-05 9.4383725657954472e-07 0 -1.9679718479552094e-05 1.1372001762590918e-05 0 -1.7384178528348604e-05 6.4690288761578856e-06 0 -1.3922687509123721e-05 7.6366383419968129e-06 0 -7.031389449072602e-06 4.08635629649343e-06 0 -6.9525048750686062e-06 2.7458352834741036e-06 0 -8.085257448633995e-06 4.3369606972554848e-06 0 -2.8227949903240938e-05 3.83789714925765e-05 0 -2.1529467439035406e-05 5.0716198945802947e-05 0 -3.2810386514655276e-05 5.5986303251593381e-05 0 -3.6056832628756376e-05 -1.5904289743195286e-05 0 -3.1234035470394816e-05 -1.4817541115480278e-05 0 -2.932787446624814e-05 -1.1950366770378594e-05 0 -1.4760163039156678e-05 -4.6699663109484018e-06 0 -1.1899900287531473e-05 -2.4194960735627305e-06 0 -1.2527876565732028e-05 -2.8022373931509608e-06 0 1.1408493516655168e-05 0.00011156202257873965 0 1.2510067822708426e-05 0.00014195700413599226 0 -7.2634753073657458e-06 0.00013292460460510952 0 -8.8266584842372852e-05 -9.0291096970823481e-05 0 -7.3740726081402653e-05 -8.9353160461146808e-05 0 -7.6260762534074002e-05 -7.9069398794013801e-05 0 -8.1171561485817624e-05 3.720839011593029e-05 0 -6.7713109191522869e-05 2.6554737394965381e-05 0 -6.3265284575567157e-05 2.5892846418275633e-05 0 -4.4328179442505939e-05 -1.9280392560515007e-05 0 -5.1704784868848304e-05 -2.4626377261703716e-05 0 -4.2296880440521883e-05 -1.8768362196453301e-05 0 -1.9595550782039875e-05 -3.1660494419844415e-07 0 -2.1989305235089211e-05 2.4814878846872168e-07 0 -1.6649573844826244e-05 4.584296110895905e-06 0 -1.4595841018802279e-05 8.7546129271989373e-07 0 -2.1399983754668716e-05 3.1632875079205528e-06 0 -1.9770168942620299e-05 2.7786986362911645e-06 0 -2.6812734295769747e-05 5.2695604358490159e-06 0 -1.9770168942620299e-05 2.7786986362911645e-06 0 -2.1399983754668716e-05 3.1632875079205528e-06 0 -9.0871652284115916e-06 1.0372387142645709e-05 0 -9.4669090291558197e-06 1.460824025366663e-05 0 -1.0155891281126916e-05 1.2897600044401921e-05 0 -7.7316549840762252e-05 -0.0001046386828502267 0 -7.3740726081402653e-05 -8.9353160461146808e-05 0 -8.2638197548373077e-05 -9.74142661879868e-05 0 -4.3034481506968603e-05 -3.1043728739299212e-05 0 -4.1506140527326651e-05 -3.114875277618034e-05 0 -4.0163328896022228e-05 -2.6885750876268753e-05 0 8.7200854222521774e-06 0.00023287507121355945 0 5.7935358541125033e-06 0.00026307171970680476 0 -1.214705540843797e-05 0.00024871677995137579 0 -9.3042617444819836e-05 -0.00011893976882096469 0 -9.3903129249088983e-05 -0.00013280254855847453 0 -8.4036164942497357e-05 -0.00012386145270518035 0 -3.7766027870052698e-05 2.4224296392493123e-05 0 -2.7185366577413659e-05 1.5761042074894554e-05 0 -2.2804478731939393e-05 1.894528671243305e-05 0 -2.483312474702269e-05 -1.686634954392471e-05 0 -2.902905265423384e-05 -2.3242914716507442e-05 0 -2.4530400064861356e-05 -1.9649401485949512e-05 0 -3.1339083728797081e-05 -1.7525222762223245e-05 0 -2.9962000656037879e-05 -1.9867052887944131e-05 0 -2.5519557665723977e-05 -1.4501722565183716e-05 0 -0.00015259260111932861 0.000244178454997951 0 -0.00012738971174013842 0.00022558743184735916 0 -0.00013163258512850239 0.00025287718191494999 0 -2.36103690464689e-05 -0.00011134636259344011 0 -3.249701715993499e-05 -0.00010541534844307205 0 -3.3240428809296604e-05 -0.00011835414366187843 0 -1.4709618490586883e-05 -4.0375512904691023e-06 0 -1.1789212930237532e-05 -2.2392744309603737e-06 0 -1.4676930391596063e-05 -3.6114609527544877e-06 0 -1.4160861792647112e-05 1.9249897326552643e-05 0 -2.1072468882926434e-05 2.558937539488217e-05 0 -2.2804478731939393e-05 1.894528671243305e-05 0 -3.6056832628756376e-05 -1.5904289743195286e-05 0 -3.1368725586394904e-05 -1.2312877835982048e-05 0 -3.6778392073960706e-05 -1.5021171925873829e-05 0 -3.8419241124433767e-05 -2.2314952324209952e-05 0 -4.3039015768258931e-05 -2.736291899262069e-05 0 -3.8540616424126411e-05 -2.2128889169112853e-05 0 -1.6339017992117728e-05 -4.3158185601759006e-06 0 -1.5622033054315951e-05 -4.0302593462040815e-06 0 -2.0191703256936145e-05 -6.1436987492911038e-06 0 -8.4336214061334576e-05 -7.6216312622155353e-05 0 -8.8266584842372839e-05 -9.0291096970823481e-05 0 -7.6260762534074002e-05 -7.9069398794013801e-05 0 -2.9634025636425489e-05 -1.0916098311176122e-05 0 -2.3998647442137466e-05 -8.0465224086576931e-06 0 -2.5020109724464657e-05 -8.8266814305216998e-06 0 -1.9719907329313335e-05 -6.1539259112285296e-06 0 -2.5020109724464657e-05 -8.8266814305216998e-06 0 -2.3998647442137466e-05 -8.0465224086576931e-06 0 -9.8771485216022208e-05 0.00015155724038702168 0 -7.9104219694595639e-05 0.00015609722842635301 0 -0.00010117439618806162 0.0001734579370175887 0 -2.5459411599969887e-06 -9.1731002010963573e-07 0 -5.3623761649452668e-06 -1.0427336362270326e-06 0 -2.8671189150916703e-06 -9.3228712566831253e-07 0 -6.3066471153961139e-06 -9.4585121817505216e-07 0 -2.8671189150916703e-06 -9.3228712566831253e-07 0 -5.3623761649452668e-06 -1.0427336362270326e-06 0 -5.5759538297827039e-06 -2.8129255752544086e-07 0 -5.5262683112672371e-06 -2.7023881807441267e-09 0 -2.6527586660076877e-06 2.0282721070515298e-07 0 -2.5874146802596142e-06 3.7559361921979853e-07 0 -2.6527586660076877e-06 2.0282721070515298e-07 0 -5.5262683112672371e-06 -2.7023881807441267e-09 0 -1.8645207911676643e-05 -9.0190251649991835e-06 0 -1.8001463076144002e-05 -7.7539437349431899e-06 0 -2.13160540287347e-05 -1.1783928467242604e-05 0 -2.5230922384538897e-05 -4.0567478131496201e-06 0 -2.7160669756718999e-05 -7.1454761415312491e-06 0 -2.7980289228629948e-05 -1.074955950068873e-05 0 -3.0110399165878114e-05 -1.2581012322158636e-05 0 -2.7980289228629948e-05 -1.074955950068873e-05 0 -2.7160669756718999e-05 -7.1454761415312491e-06 0 -4.3039015768258931e-05 -2.736291899262069e-05 0 -4.648490942724122e-05 -3.2927163766747205e-05 0 -4.3285381599534174e-05 -2.9558894255310536e-05 0 -3.0110399165878114e-05 -1.2581012322158636e-05 0 -2.9466462618991663e-05 -1.0568674248198707e-05 0 -3.1783470623292375e-05 -1.4391590179516784e-05 0 -2.5747810342240517e-05 -3.0667339250842421e-05 0 -2.2647798974864884e-05 -2.5887881179111376e-05 0 -2.7685885259708766e-05 -3.1075102228249781e-05 0 -4.7139283879850742e-05 -3.7937087387526448e-05 0 -4.4272413011435387e-05 -3.3984897931255994e-05 0 -4.5565946905508391e-05 -3.3904744593552139e-05 0 -5.1704784868848304e-05 -2.4626377261703716e-05 0 -5.9207996533576671e-05 -3.168820955803977e-05 0 -5.1087089779095773e-05 -2.7251457808511068e-05 0 -9.5224511264259412e-05 5.22714540274308e-05 0 -8.1171561485817624e-05 3.720839011593029e-05 0 -7.8568480831583287e-05 4.2994204334569124e-05 0 -1.5787736824745078e-05 -6.8999822733393989e-06 0 -2.1944090379058216e-05 -1.2583527638465116e-05 0 -1.7203724082814094e-05 -1.5423883197288871e-05 0 -2.5747810342240517e-05 -3.0667339250842421e-05 0 -2.9870424106430469e-05 -3.5597245766349903e-05 0 -2.8140078027868575e-05 -3.4659743833174581e-05 0 -3.1339083728797081e-05 -1.7525222762223245e-05 0 -3.1234035470394816e-05 -1.4817541115480278e-05 0 -3.7663040192839361e-05 -1.9700857147352683e-05 0 -2.6176164373035647e-06 5.8827695596399114e-07 0 -1.0705300232939216e-06 2.9016956961409331e-07 0 -1.2214580334615019e-06 3.4956887549744172e-07 0 -1.2863318720012625e-05 4.5950622405305184e-06 0 -1.7384178528348604e-05 6.4690288761578865e-06 0 -1.4635752057844979e-05 2.9027900004115806e-06 0 -7.4766039421930107e-06 2.6662168320478938e-06 0 -1.0205251135001424e-05 2.6747841997850989e-06 0 -8.1488681620985484e-06 1.3183341588003142e-06 0 -1.7891295147790125e-05 9.0769806424721171e-06 0 -2.1559686432551437e-05 2.6806559844875501e-06 0 -2.1153603819002474e-05 -1.3164905710729797e-06 0 -1.5236640821759158e-05 -4.9817208086605394e-06 0 -1.1626850686805547e-05 -3.1625018323390301e-06 0 -1.1090012965590128e-05 -4.1139812510466967e-06 0 -7.6773251505098979e-06 -2.0464209832045373e-06 0 -1.1090012965590128e-05 -4.1139812510466967e-06 0 -1.1626850686805547e-05 -3.1625018323390301e-06 0 -1.0098005607257455e-05 9.8855835521726519e-07 0 -1.5379790849692052e-05 1.8227208800977456e-06 0 -1.4931442525098588e-05 3.4413273460329177e-06 0 -2.0678939598904772e-05 3.981373982692792e-06 0 -1.4931442525098588e-05 3.4413273460329177e-06 0 -1.5379790849692052e-05 1.8227208800977456e-06 0 -7.3107761730698188e-05 -5.0894622287576975e-05 0 -7.9320882065475002e-05 -6.3033264836723804e-05 0 -6.799280835988834e-05 -5.5139371679549092e-05 0 -3.6570144841999503e-05 7.9962550425756655e-05 0 -4.5380517068124065e-05 5.9974581225819405e-05 0 -3.2810386514655276e-05 5.5986303251593381e-05 0 -1.9051817354247104e-05 -6.820646414568947e-05 0 -2.7103903585027745e-05 -6.2773940691766795e-05 0 -2.9510887822101769e-05 -7.8251226587335937e-05 0 -3.570280128325625e-05 -4.3682513835171419e-05 0 -3.8385913088777439e-05 -4.3471580818672425e-05 0 -3.7979473820559845e-05 -4.6671509077431239e-05 0 -1.1110077851932897e-05 -1.8391119658090958e-06 0 -1.4676930391596063e-05 -3.6114609527544877e-06 0 -1.1789212930237532e-05 -2.2392744309603737e-06 0 -2.1183621991976171e-05 -5.1155267046891018e-06 0 -1.68203181980694e-05 -1.0233800842910034e-06 0 -1.7802327192214576e-05 -4.2585850350995452e-06 0 -2.517179274362276e-05 -8.8576773288987721e-06 0 -2.0191703256936145e-05 -6.1436987492911038e-06 0 -2.3998647442137466e-05 -8.0465224086576931e-06 0 -2.8055334764900569e-05 0.00014351989086073963 0 -5.8926144912493854e-06 0.00015283913675872708 0 -1.7987078771546634e-05 0.00017099016065975025 0 -1.8193444986533446e-09 2.0843567661195245e-10 0 -1.9355147146637551e-06 5.0223433514748407e-07 0 -1.2214580334615019e-06 3.4956887549744172e-07 0 -3.9307111861794928e-05 -3.1393217887888371e-05 0 -3.7018653785035905e-05 -3.1757352634746254e-05 0 -3.586983976878155e-05 -2.6914096411896506e-05 0 -1.5787736824745078e-05 -6.8999822733393989e-06 0 -1.5528579614953148e-05 9.8947162139202011e-06 0 -2.1153603819002474e-05 -1.3164905710729797e-06 0 -0.00013154765758504081 0.00012218594698430949 0 -0.00012064144150823175 9.5009247461573556e-05 0 -0.00010773446476876486 0.00010520612673628363 0 -2.0389490721894336e-06 4.2703678845812469e-07 0 -2.4247251081212564e-06 3.514312450265758e-07 0 -1.3091734325545458e-06 1.367252794462541e-07 0 -5.5759538297827039e-06 -2.8129255752544086e-07 0 -2.6527586660076877e-06 2.0282721070515298e-07 0 -2.6258895836171848e-06 -2.4387194341629399e-08 0 -6.3066471153961139e-06 -9.4585121817505216e-07 0 -3.0832432132566962e-06 -7.1071983076854779e-07 0 -2.8671189150916703e-06 -9.3228712566831253e-07 0 -8.9412970213359963e-06 2.2099579014239939e-06 0 -7.4102536673689453e-06 1.5441713414518422e-06 0 -8.9630035408091326e-06 7.4428580585292425e-07 0 -4.5615907733619895e-05 -2.6131441239203132e-05 0 -4.4059788810874644e-05 -2.1658471103602934e-05 0 -5.1087089779095773e-05 -2.7251457808511068e-05 0 -6.6316382887167792e-05 4.1430994198177196e-05 0 -7.8568480831583287e-05 4.2994204334569124e-05 0 -6.5405085890067412e-05 3.1972866014295816e-05 0 -3.2163754641229067e-05 0.0002412973733535616 0 -1.977187615332592e-05 0.00021291469402731872 0 -9.0703282990516483e-06 0.00022822117534404315 0 -7.4053067763830629e-05 -0.00011877710313155418 0 -7.7316549840762252e-05 -0.0001046386828502267 0 -8.3969542565346446e-05 -0.00011402112953808781 0 -1.4557950295440181e-05 -1.6011861278925186e-05 0 -1.7203724082814094e-05 -1.5423883197288871e-05 0 -2.0942747546027715e-05 -2.1924201866251497e-05 0 -1.9679718479552094e-05 1.1372001762590918e-05 0 -2.2804478731939393e-05 1.894528671243305e-05 0 -2.7185366577413659e-05 1.5761042074894554e-05 0 -2.2601627661685616e-05 -1.8937397420987695e-05 0 -2.0942747546027715e-05 -2.1924201866251497e-05 0 -1.7203724082814094e-05 -1.5423883197288871e-05 0 -7.6041847099184949e-06 6.0959318054484154e-07 0 -6.7727316157809936e-06 4.5394293890898559e-07 0 -9.1682680281242051e-06 -2.8305866364108934e-07 0 -2.222498283404192e-06 1.0124077375260026e-07 0 -1.6208692193436911e-06 -2.9713134560332391e-07 0 -1.0523382887580422e-06 -6.3642857755332638e-08 0 -1.4709618490586883e-05 -4.0375512904691023e-06 0 -1.252787656573203e-05 -2.8022373931509612e-06 0 -1.1789212930237532e-05 -2.2392744309603737e-06 0 -1.8485860440575672e-05 6.4086764862892361e-06 0 -2.1559686432551437e-05 2.6806559844875501e-06 0 -1.559464374824305e-05 1.233913735114936e-05 0 -1.7891295147790125e-05 9.0769806424721171e-06 0 -1.559464374824305e-05 1.233913735114936e-05 0 -2.1559686432551437e-05 2.6806559844875501e-06 0 -6.4438898932778796e-05 -9.5663604669696131e-05 0 -7.7316549840762252e-05 -0.0001046386828502267 0 -6.7656886031519845e-05 -0.00010882596938084743 0 -7.4053067763830629e-05 -0.00011877710313155418 0 -6.7656886031519845e-05 -0.00010882596938084743 0 -7.7316549840762252e-05 -0.0001046386828502267 0 -4.0333318641295846e-05 0.00019361282944923932 0 -1.977187615332592e-05 0.00021291469402731872 0 -4.2460729289305029e-05 0.00022281911080937605 0 -3.2163754641229067e-05 0.0002412973733535616 0 -4.2460729289305029e-05 0.00022281911080937605 0 -1.977187615332592e-05 0.00021291469402731872 0 -4.0333318641295846e-05 0.00019361282944923932 0 -4.0918239028257369e-05 0.00016488858389131572 0 -1.7987078771546634e-05 0.00017099016065975025 0 -2.8055334764900569e-05 0.00014351989086073963 0 -1.7987078771546634e-05 0.00017099016065975025 0 -4.0918239028257369e-05 0.00016488858389131572 0 -1.5637699212308608e-09 1.6052394600968894e-10 0 -1.6395026801797622e-09 1.7827973447231674e-10 0 -1.0705300232939216e-06 2.9016956961409331e-07 0 -1.8012750878973368e-05 -2.0653849014720419e-05 0 -2.0942747546027718e-05 -2.19242018662515e-05 0 -2.2647798974864884e-05 -2.5887881179111376e-05 0 -2.5587917068493414e-05 -2.7224603314370896e-05 0 -2.2647798974864884e-05 -2.5887881179111376e-05 0 -2.0942747546027715e-05 -2.1924201866251497e-05 0 -6.687058342119272e-05 -7.5380596912767736e-05 0 -7.000851575642979e-05 -6.6513018522343766e-05 0 -7.6260762534074002e-05 -7.9069398794013801e-05 0 -7.9320882065475002e-05 -6.3033264836723804e-05 0 -7.000851575642979e-05 -6.6513018522343766e-05 0 -6.799280835988834e-05 -5.5139371679549092e-05 0 -0.00013154765758504081 0.00012218594698430949 0 -0.00010773446476876486 0.00010520612673628363 0 -0.00010960818305092266 0.00013155079245807746 0 -9.4971041164664934e-06 5.9787442242655613e-06 0 -9.9262860998878292e-06 8.328193508733245e-06 0 -8.2507247359554821e-06 6.7746166916914796e-06 0 -9.0871652284115916e-06 1.0372387142645709e-05 0 -8.2507247359554821e-06 6.7746166916914796e-06 0 -9.9262860998878292e-06 8.328193508733245e-06 0 -4.981244025471914e-06 8.2975450893225655e-07 0 -6.0706591025183802e-06 1.019546863042628e-06 0 -4.741159841272238e-06 1.0549796913023886e-06 0 -2.6176164373035647e-06 5.8827695596399114e-07 0 -1.2214580334615017e-06 3.4956887549744167e-07 0 -1.9355147146637551e-06 5.0223433514748407e-07 0 -2.6812734295769747e-05 5.2695604358490159e-06 0 -3.5640663542679696e-05 8.9242781368421182e-06 0 -2.8636855126319006e-05 6.82933916403008e-06 0 -1.9719907329313335e-05 -6.1539259112285296e-06 0 -2.0570006899549384e-05 -7.2485545018360795e-06 0 -2.5020109724464657e-05 -8.8266814305216998e-06 0 -1.9719907329313335e-05 -6.1539259112285296e-06 0 -2.3998647442137466e-05 -8.0465224086576914e-06 0 -2.0191703256936145e-05 -6.1436987492911038e-06 0 1.0792953935422658e-05 0.00020283780470622446 0 -9.0703282990516483e-06 0.00022822117534404315 0 -1.977187615332592e-05 0.00021291469402731872 0 -9.1198209103993659e-05 -0.0001045886730535599 0 -8.3969542565346446e-05 -0.00011402112953808783 0 -7.7316549840762252e-05 -0.0001046386828502267 0 -1.5769650174229396e-09 6.8383859806584326e-14 0 -1.0523382887580422e-06 -6.3642857755332664e-08 0 -1.6208692193436911e-06 -2.9713134560332391e-07 0 -7.4766039421930107e-06 2.6662168320478938e-06 0 -9.9741192586484648e-06 4.8810272853809422e-06 0 -1.0205251135001424e-05 2.6747841997850989e-06 0 -4.996729636407751e-05 -6.4836427648529545e-05 0 -5.3458352102246003e-05 -5.5331414105411904e-05 0 -5.8111122633193815e-05 -6.4929402108734318e-05 0 -2.1072095760253498e-05 5.7440969036415759e-06 0 -1.73841785283486e-05 6.4690288761578865e-06 0 -2.4098449267379248e-05 9.7861725949984493e-06 0 -2.483312474702269e-05 -1.686634954392471e-05 0 -2.9962000656037879e-05 -1.9867052887944131e-05 0 -2.902905265423384e-05 -2.3242914716507442e-05 0 -7.9229241085632885e-06 5.4559989486121761e-06 0 -8.2507247359554821e-06 6.7746166916914796e-06 0 -8.8507946781474782e-06 8.4339716987214964e-06 0 -6.5183859287802753e-05 0.00012360530059272114 0 -8.5936509440714086e-05 0.00012841323271993438 0 -7.4690234023214915e-05 0.00010635730891958247 0 -4.5615907733619895e-05 -2.6131441239203132e-05 0 -5.4807633564778337e-05 -3.2989174092389971e-05 0 -4.8008664503973783e-05 -3.2421819738499513e-05 0 -6.6316382887167792e-05 4.1430994198177196e-05 0 -7.1031177007764177e-05 5.4411623772029456e-05 0 -8.4553810284672612e-05 5.6240575199375506e-05 0 -4.0115199813018058e-05 -4.6556357597177136e-05 0 -3.8920746731774722e-05 -4.9467581396180811e-05 0 -3.7979473820559845e-05 -4.6671509077431239e-05 0 -3.7138215051062016e-05 -4.8826446423907738e-05 0 -3.7979473820559845e-05 -4.6671509077431239e-05 0 -3.8920746731774722e-05 -4.9467581396180811e-05 0 -2.517179274362276e-05 -8.8576773288987721e-06 0 -2.06030647664763e-05 -6.6033777351715424e-06 0 -2.0191703256936145e-05 -6.1436987492911038e-06 0 -1.6339017992117728e-05 -4.3158185601759006e-06 0 -2.0191703256936145e-05 -6.1436987492911038e-06 0 -2.06030647664763e-05 -6.6033777351715424e-06 0 -1.4760163039156678e-05 -4.6699663109484018e-06 0 -1.8001463076144002e-05 -7.7539437349431899e-06 0 -1.6210415623922979e-05 -6.0832269769280119e-06 0 -2.9634025636425489e-05 -1.0916098311176122e-05 0 -3.6778392073960706e-05 -1.5021171925873829e-05 0 -3.1368725586394904e-05 -1.2312877835982048e-05 0 -3.1645658115833395e-05 8.6249152827772471e-06 0 -3.2245785774013707e-05 7.5001391512794131e-06 0 -2.4845910864313371e-05 5.3855315311642326e-06 0 -4.310984364554803e-05 -5.1198089169740764e-05 0 -3.9775534151173316e-05 -5.1714044486664427e-05 0 -4.1066259944677724e-05 -4.918290167134143e-05 0 -6.5183859287802753e-05 0.00012360530059272114 0 -7.9104219694595639e-05 0.00015609722842635301 0 -8.5936509440714086e-05 0.00012841323271993438 0 -1.6395026801797622e-09 1.7827973447231674e-10 0 -1.8193444986533446e-09 2.0843567661195245e-10 0 -1.2214580334615019e-06 3.4956887549744172e-07 0 1.2092691068544419e-05 0.00017243099445108187 0 -1.7987078771546634e-05 0.00017099016065975025 0 -5.8926144912493854e-06 0.00015283913675872708 0 -1.0723470886337364e-05 1.625449153656659e-05 0 -8.9244016871643756e-06 2.0630518405522537e-05 0 -9.4669090291558214e-06 1.460824025366663e-05 0 -6.6316382887167792e-05 4.1430994198177196e-05 0 -5.4643261611988635e-05 3.9311677201576564e-05 0 -7.1031177007764177e-05 5.4411623772029456e-05 0 -1.0723470886337364e-05 1.625449153656659e-05 0 -1.0635437919131078e-05 1.183001718532592e-05 0 -1.3506378582161955e-05 1.1493425103735467e-05 0 -1.0723470886337364e-05 1.625449153656659e-05 0 -9.4669090291558197e-06 1.4608240253666628e-05 0 -1.0635437919131078e-05 1.183001718532592e-05 0 -1.9048090212820847e-05 -6.1204395561866291e-06 0 -2.3715315246560995e-05 -8.7770449529335544e-06 0 -2.2219419941125827e-05 -8.9144845409140157e-06 0 -9.5264954596029629e-06 -1.1154703119773409e-06 0 -1.1789212930237532e-05 -2.2392744309603737e-06 0 -1.2527876565732028e-05 -2.8022373931509608e-06 0 -8.9487419297757043e-05 0.00010464893540871951 0 -0.00010960818305092266 0.00013155079245807746 0 -0.00010773446476876486 0.00010520612673628363 0 -2.2992848646654902e-05 -1.2367460150136378e-05 0 -2.5051814240924662e-05 -1.0466592630042399e-05 0 -2.1093752625472662e-05 -8.1069829756108033e-06 0 -1.8485860440575672e-05 6.4086764862892361e-06 0 -1.559464374824305e-05 1.233913735114936e-05 0 -1.3506378582161955e-05 1.1493425103735467e-05 0 -3.8347240351566582e-05 -2.6707575610412498e-05 0 -3.5436833229781129e-05 -2.2376967823002513e-05 0 -3.6877208928294593e-05 -2.1817670770866058e-05 0 -4.5615907733619895e-05 -2.6131441239203132e-05 0 -5.1087089779095773e-05 -2.7251457808511072e-05 0 -5.4807633564778337e-05 -3.2989174092389971e-05 0 -6.6316382887167792e-05 4.1430994198177196e-05 0 -8.4553810284672612e-05 5.6240575199375506e-05 0 -7.8568480831583287e-05 4.2994204334569124e-05 0 -0.00011056277054453102 0.00024139294525671868 0 -0.00013163258512850239 0.00025287718191494999 0 -0.00012738971174013842 0.00022558743184735916 0 -4.0873770108859203e-05 -0.00011464853313841887 0 -3.3240428809296604e-05 -0.00011835414366187843 0 -3.249701715993499e-05 -0.00010541534844307205 0 -4.3034481506968603e-05 -3.1043728739299212e-05 0 -4.0163328896022228e-05 -2.6885750876268753e-05 0 -4.3285381599534174e-05 -2.9558894255310536e-05 0 -9.0871652284115916e-06 1.0372387142645709e-05 0 -8.8507946781474782e-06 8.4339716987214964e-06 0 -8.2507247359554821e-06 6.7746166916914796e-06 0 -1.8405955696596382e-05 3.2337584886521532e-06 0 -2.4845910864313371e-05 5.3855315311642326e-06 0 -2.1399983754668716e-05 3.1632875079205528e-06 0 -3.6056832628756376e-05 -1.5904289743195286e-05 0 -2.932787446624814e-05 -1.1950366770378594e-05 0 -3.1368725586394904e-05 -1.2312877835982048e-05 0 -5.1970913682246065e-05 2.1786312639072655e-05 0 -4.3023085015222433e-05 1.9730747689054627e-05 0 -5.2724470221861528e-05 2.8918838406473336e-05 0 -2.1656907624140491e-05 -1.3796128040938823e-05 0 -2.4530400064861356e-05 -1.9649401485949512e-05 0 -2.3760159906605856e-05 -1.7213069710129338e-05 0 -2.6455587356146562e-05 -1.1335806062765108e-05 0 -2.932787446624814e-05 -1.1950366770378594e-05 0 -3.1234035470394816e-05 -1.4817541115480278e-05 0 -1.8485860440575672e-05 6.4086764862892361e-06 0 -1.6649573844826244e-05 4.584296110895905e-06 0 -2.1989305235089211e-05 2.4814878846872168e-07 0 -1.5769650174229396e-09 6.8383859806584326e-14 0 -1.547174514697659e-09 -7.0926540284363873e-11 0 -1.0523382887580422e-06 -6.3642857755332638e-08 0 -4.3372392450992281e-05 -3.5535848684056054e-05 0 -4.4272413011435387e-05 -3.3984897931255994e-05 0 -4.7139283879850742e-05 -3.7937087387526448e-05 0 -4.4328179442505939e-05 -1.9280392560515007e-05 0 -4.2296880440521883e-05 -1.8768362196453301e-05 0 -3.6778392073960706e-05 -1.5021171925873829e-05 0 -6.7713109191522869e-05 2.6554737394965381e-05 0 -5.3673843150070066e-05 1.8937994150835938e-05 0 -6.3265284575567157e-05 2.5892846418275633e-05 0 -5.9894348824547954e-05 -5.4327754429871863e-05 0 -6.799280835988834e-05 -5.5139371679549092e-05 0 -7.000851575642979e-05 -6.6513018522343766e-05 0 -3.4587115750453425e-05 -2.7169285906868818e-05 0 -3.434432480392215e-05 -3.2526498113602984e-05 0 -2.902905265423384e-05 -2.3242914716507442e-05 0 -2.837769962054856e-05 -2.7275287326189953e-05 0 -2.902905265423384e-05 -2.3242914716507442e-05 0 -3.434432480392215e-05 -3.2526498113602984e-05 0 -2.6455587356146562e-05 -1.1335806062765108e-05 0 -2.6240849774787107e-05 -1.2704235319406126e-05 0 -2.2219419941125827e-05 -8.9144845409140157e-06 0 -3.8347240351566582e-05 -2.6707575610412498e-05 0 -3.6877208928294593e-05 -2.1817670770866058e-05 0 -4.0163328896022228e-05 -2.6885750876268753e-05 0 -6.687058342119272e-05 -7.5380596912767736e-05 0 -5.8250882314611319e-05 -7.4090093404865132e-05 0 -5.8111122633193815e-05 -6.4929402108734318e-05 0 -2.6455587356146562e-05 -1.1335806062765108e-05 0 -2.2219419941125827e-05 -8.9144845409140157e-06 0 -2.3715315246560995e-05 -8.7770449529335544e-06 0 -3.4107987718241917e-05 -1.8273261909622312e-05 0 -3.6877208928294593e-05 -2.1817670770866058e-05 0 -3.5436833229781129e-05 -2.2376967823002513e-05 0 -2.9639590987957265e-06 -4.3125682148307006e-07 0 -3.0384236708603564e-06 -2.0943303050492228e-09 0 -4.0565642266776762e-06 3.1427400059848273e-08 0 -5.9207996533576671e-05 -3.168820955803977e-05 0 -5.4807633564778337e-05 -3.2989174092389971e-05 0 -5.1087089779095773e-05 -2.7251457808511068e-05 0 -9.5224511264259412e-05 5.22714540274308e-05 0 -7.8568480831583287e-05 4.2994204334569124e-05 0 -8.4553810284672612e-05 5.6240575199375506e-05 0 -9.1198209103993659e-05 -0.0001045886730535599 0 -7.7316549840762252e-05 -0.0001046386828502267 0 -8.2638197548373077e-05 -9.74142661879868e-05 0 1.0792953935422658e-05 0.00020283780470622446 0 -1.977187615332592e-05 0.00021291469402731872 0 -1.1419352752987572e-05 0.00019120184336281654 0 1.2092691068544419e-05 0.00017243099445108187 0 -1.1419352752987572e-05 0.00019120184336281654 0 -1.7987078771546634e-05 0.00017099016065975025 0 -9.1198209103993659e-05 -0.0001045886730535599 0 -9.3042617444819822e-05 -0.00011893976882096469 0 -8.3969542565346446e-05 -0.00011402112953808781 0 1.0792953935422658e-05 0.00020283780470622446 0 8.7200854222521774e-06 0.00023287507121355945 0 -9.0703282990516483e-06 0.00022822117534404315 0 -2.2601627661685616e-05 -1.8937397420987695e-05 0 -2.1944090379058216e-05 -1.2583527638465116e-05 0 -2.6096044740795547e-05 -1.8265219588843682e-05 0 -4.0055226749878519e-05 -2.5041573652531361e-05 0 -4.3285381599534174e-05 -2.9558894255310536e-05 0 -4.0163328896022228e-05 -2.6885750876268753e-05 0 -5.3430520334970594e-05 -4.932203340905467e-05 0 -5.46325819034491e-05 -5.1913053416688386e-05 0 -5.2422596366831373e-05 -4.7786866401358724e-05 0 -2.9592734792173552e-05 -3.6093737092085462e-05 0 -3.2795289569538094e-05 -4.251942579141614e-05 0 -3.2327598013865495e-05 -3.9429201693837384e-05 0 -6.6316382887167792e-05 4.1430994198177196e-05 0 -5.2724470221861528e-05 2.8918838406473336e-05 0 -5.4643261611988635e-05 3.9311677201576564e-05 0 -1.6339017992117728e-05 -4.3158185601759006e-06 0 -1.3093875193913191e-05 -2.7550186975827479e-06 0 -1.5622033054315951e-05 -4.0302593462040815e-06 0 -5.5163625445408186e-06 1.6186142442450009e-06 0 -6.0706591025183802e-06 1.019546863042628e-06 0 -7.4102536673689453e-06 1.5441713414518422e-06 0 -9.8771485216022208e-05 0.00015155724038702168 0 -8.5936509440714086e-05 0.00012841323271993438 0 -7.9104219694595639e-05 0.00015609722842635301 0 -3.6032250513686479e-05 -7.1786232962959613e-05 0 -2.9510887822101769e-05 -7.8251226587335937e-05 0 -2.7103903585027745e-05 -6.2773940691766795e-05 0 -2.222498283404192e-06 1.0124077375260026e-07 0 -1.0523382887580422e-06 -6.3642857755332638e-08 0 -1.3091734325545458e-06 1.367252794462541e-07 0 -3.1339083728797081e-05 -1.7525222762223245e-05 0 -2.5519557665723977e-05 -1.4501722565183714e-05 0 -2.6240849774787107e-05 -1.2704235319406126e-05 0 1.2510067822708426e-05 0.00014195700413599226 0 1.2092691068544421e-05 0.00017243099445108187 0 -5.8926144912493854e-06 0.00015283913675872708 0 -6.1243036284932552e-06 -5.8056219981714612e-07 0 -6.8002092162847226e-06 1.4579888314758556e-07 0 -8.3855040627441762e-06 -1.2757631199649535e-07 0 -2.2601627661685616e-05 -1.8937397420987695e-05 0 -2.6096044740795547e-05 -1.8265219588843682e-05 0 -2.5599737169612126e-05 -2.3695712485952723e-05 0 -2.9165540425878242e-05 -2.4078745372232742e-05 0 -2.5599737169612126e-05 -2.3695712485952723e-05 0 -2.6096044740795547e-05 -1.8265219588843682e-05 0 -4.9717349215734196e-05 -4.5832738698151629e-05 0 -5.077562928030852e-05 -4.480488545397027e-05 0 -5.2422596366831373e-05 -4.7786866401358724e-05 0 -5.3430520334970594e-05 -4.932203340905467e-05 0 -5.2422596366831373e-05 -4.7786866401358724e-05 0 -5.077562928030852e-05 -4.480488545397027e-05 0 -2.9592734792173552e-05 -3.6093737092085462e-05 0 -3.1507128677225147e-05 -4.0377478350277361e-05 0 -3.2795289569538094e-05 -4.251942579141614e-05 0 -3.4332337777746707e-05 -4.5798103738766069e-05 0 -3.2795289569538094e-05 -4.251942579141614e-05 0 -3.1507128677225147e-05 -4.0377478350277361e-05 0 -9.4971041164664934e-06 5.9787442242655613e-06 0 -8.085257448633995e-06 4.3369606972554848e-06 0 -1.0848179413251808e-05 3.5660819241691056e-06 0 -1.5787736824745078e-05 -6.8999822733393989e-06 0 -2.1153603819002474e-05 -1.3164905710729797e-06 0 -2.1944090379058216e-05 -1.2583527638465116e-05 0 -2.5818108927927207e-05 -9.0411080007379088e-06 0 -2.1944090379058216e-05 -1.2583527638465117e-05 0 -2.1153603819002474e-05 -1.3164905710729797e-06 0 -6.687058342119272e-05 -7.5380596912767736e-05 0 -7.6260762534074002e-05 -7.9069398794013801e-05 0 -7.3740726081402653e-05 -8.9353160461146808e-05 0 -2.517179274362276e-05 -8.8576773288987721e-06 0 -2.932787446624814e-05 -1.1950366770378594e-05 0 -2.3715315246560995e-05 -8.7770449529335544e-06 0 -2.6455587356146562e-05 -1.1335806062765108e-05 0 -2.3715315246560995e-05 -8.7770449529335544e-06 0 -2.932787446624814e-05 -1.1950366770378594e-05 0 -2.4680038319081135e-05 -2.2663266025710934e-05 0 -3.2780062555369692e-05 -1.8710250470322314e-05 0 -3.0955303150614316e-05 -1.7135999270229471e-05 0 -4.7987611474296828e-05 -4.1321744410600232e-05 0 -5.077562928030852e-05 -4.480488545397027e-05 0 -4.7597782139978846e-05 -4.2892557255869597e-05 0 -3.1365579283040422e-05 -3.8890923420881503e-05 0 -3.3722205464936474e-05 -4.2866804442160447e-05 0 -3.1507128677225147e-05 -4.0377478350277361e-05 0 -7.6041847099184949e-06 6.0959318054484154e-07 0 -7.4102536673689453e-06 1.5441713414518422e-06 0 -6.0706591025183802e-06 1.019546863042628e-06 0 -3.9775534151173316e-05 -5.1714044486664427e-05 0 -3.8920746731774722e-05 -4.9467581396180811e-05 0 -4.1066259944677724e-05 -4.918290167134143e-05 0 -6.3800272071512378e-06 2.907603930862218e-07 0 -4.7426746919638186e-06 6.7219817652902835e-07 0 -4.2078663852127835e-06 5.9605234658731786e-07 0 -3.4107987718241917e-05 -1.8273261909622312e-05 0 -3.1783470623292375e-05 -1.4391590179516784e-05 0 -3.3413775051358467e-05 -1.5651888266617666e-05 0 -2.222498283404192e-06 1.0124077375260026e-07 0 -3.1725983580036927e-06 4.2590168296145125e-07 0 -3.0384236708603564e-06 -2.0943303050492662e-09 0 -6.3480023782173871e-05 0.00016999882973025703 0 -5.349428349903905e-05 0.00014601283141715737 0 -4.0918239028257369e-05 0.00016488858389131572 0 -6.5948700543682254e-05 0.00022276118068135275 0 -4.2460729289305022e-05 0.00022281911080937605 0 -5.3132130695465286e-05 0.00024191577205284271 0 -5.7735733871930241e-05 -0.00010895695235963894 0 -6.7656886031519845e-05 -0.00010882596938084743 0 -6.4721184115778632e-05 -0.00011804837161904803 0 -3.4988860240911697e-06 3.1082860810490703e-05 0 -1.5528579614953148e-05 9.8947162139202011e-06 0 -5.5589774999290514e-06 1.178653107328007e-06 0 -2.222498283404192e-06 1.0124077375260026e-07 0 -1.3091734325545458e-06 1.367252794462541e-07 0 -2.424725108121256e-06 3.514312450265758e-07 0 -8.8266584842372852e-05 -9.0291096970823481e-05 0 -8.2638197548373077e-05 -9.7414266187986786e-05 0 -7.3740726081402653e-05 -8.9353160461146808e-05 0 -9.4061346087293013e-05 -0.00017041630992659044 0 -8.6076958236604587e-05 -0.00016366754956337226 0 -9.4146853156407977e-05 -0.00015848680958183056 0 -4.2547151447241361e-06 0.00034451580427371961 0 -1.8284511363404447e-05 0.00033626973775142157 0 -9.0357076339912462e-07 0.00031996591021686723 0 -4.2547151447241361e-06 0.00034451580427371961 0 -2.7007615299096021e-05 0.00035168295417385584 0 -1.828451136340445e-05 0.00033626973775142157 0 -3.2851423521775235e-05 -0.00016328787944015852 0 -3.8056390020280316e-05 -0.00016056411361802761 0 -4.1550734384840768e-05 -0.00016701911450467169 0 -0.00015367693352578122 0.00035865192532974699 0 -0.0001538070931108596 0.00033136608870337736 0 -0.000135424127812279 0.00034320124367894698 0 -9.4061346087293013e-05 -0.00017041630992659044 0 -8.2142284345035677e-05 -0.00017031421416348032 0 -8.6076958236604587e-05 -0.00016366754956337226 0 -3.2851423521775235e-05 -0.00016328787944015852 0 -3.0878869262453364e-05 -0.00015286845612161326 0 -3.8056390020280316e-05 -0.00016056411361802761 0 -0.00015367693352578122 0.00035865192532974699 0 -0.000135424127812279 0.00034320124367894698 0 -0.00012638844085583527 0.00035849605612241133 0 -1.5471745146978515e-09 -7.0926540284375531e-11 0 -1.3091734325545458e-06 1.367252794462541e-07 0 -1.0523382887580422e-06 -6.3642857755332638e-08 0 -3.8347240351566582e-05 -2.6707575610412498e-05 0 -3.586983976878155e-05 -2.6914096411896506e-05 0 -3.5436833229781129e-05 -2.2376967823002513e-05 0 -2.6455587356146562e-05 -1.1335806062765108e-05 0 -3.1234035470394816e-05 -1.4817541115480278e-05 0 -2.6240849774787107e-05 -1.2704235319406126e-05 0 -6.687058342119272e-05 -7.5380596912767736e-05 0 -6.2895916487861188e-05 -8.3256372866094558e-05 0 -5.8250882314611319e-05 -7.4090093404865132e-05 0 -5.6676001685476038e-06 6.3921826012551114e-07 0 -8.1488681620985484e-06 1.3183341588003142e-06 0 -6.8002092162847226e-06 1.4579888314758556e-07 0 -7.1271028829833624e-05 0.00025932379598180201 0 -9.0322025894816815e-05 0.00027733396564908234 0 -9.0630188073565678e-05 0.00025015608506662721 0 -5.8167516827503219e-05 -0.00012540552219914933 0 -5.1573127550841765e-05 -0.00013321565560256638 0 -4.9624843574030261e-05 -0.00012057801564324073 0 -5.0778118823664694e-05 -4.2554381936987279e-05 0 -5.2257853425000304e-05 -4.6236796484801598e-05 0 -4.9908557317435552e-05 -4.2324330165896715e-05 0 -2.4162200383707992e-05 -2.8594440099104909e-05 0 -2.8140078027868575e-05 -3.4659743833174581e-05 0 -2.7019524355752293e-05 -3.2499570851178172e-05 0 -1.0279775233281625e-05 -9.6482975217110285e-06 0 -1.7203724082814094e-05 -1.5423883197288871e-05 0 -1.4557950295440181e-05 -1.6011861278925186e-05 0 -3.1339083728797081e-05 -1.7525222762223245e-05 0 -2.6240849774787107e-05 -1.2704235319406126e-05 0 -3.1234035470394816e-05 -1.4817541115480278e-05 0 -4.648490942724122e-05 -3.2927163766747205e-05 0 -4.895659345631266e-05 -3.8027474243213202e-05 0 -4.5565946905508391e-05 -3.3904744593552139e-05 0 -1.8012750878973368e-05 -2.0653849014720419e-05 0 -2.2647798974864884e-05 -2.5887881179111376e-05 0 -2.1276258162583183e-05 -2.4748222878016669e-05 0 -4.996729636407751e-05 -6.4836427648529545e-05 0 -4.3284977805045165e-05 -6.862630782343077e-05 0 -4.2076392541821288e-05 -5.5723118291972065e-05 0 -5.5163625445408186e-06 1.6186142442450009e-06 0 -4.7411598412722372e-06 1.0549796913023884e-06 0 -6.0706591025183802e-06 1.019546863042628e-06 0 -4.0873770108859203e-05 -0.00011464853313841887 0 -4.7854389731768728e-05 -0.00010637803496392956 0 -4.9624843574030261e-05 -0.00012057801564324073 0 -0.00011056277054453102 0.00024139294525671868 0 -8.90716733349162e-05 0.00022330638032318464 0 -9.0630188073565678e-05 0.00025015608506662721 0 -2.5587917068493414e-05 -2.7224603314370896e-05 0 -2.0942747546027715e-05 -2.1924201866251497e-05 0 -2.5599737169612126e-05 -2.3695712485952723e-05 0 -2.2601627661685616e-05 -1.8937397420987695e-05 0 -2.5599737169612126e-05 -2.3695712485952723e-05 0 -2.0942747546027715e-05 -2.1924201866251497e-05 0 -9.5264954596029629e-06 -1.1154703119773409e-06 0 -8.9569058808531764e-06 -9.1478692957536061e-07 0 -1.1789212930237532e-05 -2.2392744309603737e-06 0 -3.4587115750453425e-05 -2.7169285906868818e-05 0 -2.902905265423384e-05 -2.3242914716507439e-05 0 -2.9962000656037879e-05 -1.9867052887944131e-05 0 -3.3324994723192367e-05 -5.5300838001495374e-05 0 -2.5539417833013805e-05 -4.9113888186821273e-05 0 -2.9654479364238158e-05 -3.8687941507291249e-05 0 -3.3540503215206064e-05 -2.2208221049347719e-05 0 -3.5436833229781129e-05 -2.2376967823002513e-05 0 -3.586983976878155e-05 -2.6914096411896506e-05 0 -2.0161676422750646e-05 -4.0584251113544959e-05 0 -2.5539417833013805e-05 -4.9113888186821273e-05 0 -1.8746146910435209e-05 -5.4251081458320598e-05 0 -2.5747810342240517e-05 -3.0667339250842421e-05 0 -2.7685885259708766e-05 -3.1075102228249781e-05 0 -2.9870424106430469e-05 -3.5597245766349903e-05 0 -3.1291105893714142e-05 -3.4472368749804486e-05 0 -2.9870424106430469e-05 -3.5597245766349903e-05 0 -2.7685885259708766e-05 -3.1075102228249781e-05 0 -1.1674055025868025e-05 -2.470902744653243e-06 0 -1.5033324968113528e-05 -4.1799002647628655e-06 0 -1.5622033054315951e-05 -4.0302593462040815e-06 0 -1.8184113604597074e-05 -6.4820238620925793e-06 0 -2.1093752625472662e-05 -8.1069829756108033e-06 0 -1.7802327192214576e-05 -4.2585850350995452e-06 0 -2.1183621991976171e-05 -5.1155267046891018e-06 0 -1.7802327192214576e-05 -4.2585850350995452e-06 0 -2.1093752625472662e-05 -8.1069829756108033e-06 0 -1.0723470886337364e-05 1.625449153656659e-05 0 -1.559464374824305e-05 1.233913735114936e-05 0 -1.1288631619055118e-05 2.0814995463327974e-05 0 -1.7891295147790125e-05 9.0769806424721171e-06 0 -1.1288631619055118e-05 2.0814995463327974e-05 0 -1.559464374824305e-05 1.233913735114936e-05 0 1.2092691068544419e-05 0.00017243099445108187 0 1.0792953935422658e-05 0.00020283780470622446 0 -1.1419352752987572e-05 0.00019120184336281654 0 -1.3186181905482641e-05 8.9471702465532077e-06 0 -9.9262860998878292e-06 8.328193508733245e-06 0 -1.2003548552242192e-05 6.2370972017646152e-06 0 -8.8266584842372852e-05 -9.0291096970823481e-05 0 -9.1198209103993659e-05 -0.0001045886730535599 0 -8.2638197548373077e-05 -9.74142661879868e-05 0 -1.1110077851932897e-05 -1.8391119658090958e-06 0 -1.1789212930237532e-05 -2.2392744309603737e-06 0 -8.9569058808531764e-06 -9.1478692957536061e-07 0 -1.4595841018802279e-05 8.7546129271989373e-07 0 -1.1276475075540832e-05 3.3386163322281794e-07 0 -9.7548892629366488e-06 -3.5210420227611207e-07 0 -1.1674055025868025e-05 -2.470902744653243e-06 0 -8.0725155767178833e-06 -1.1550304782760038e-06 0 -8.8715526657977988e-06 -1.7822373283631213e-06 0 -7.4766039421930107e-06 2.6662168320478938e-06 0 -5.617923404035504e-06 1.8588776227669439e-06 0 -6.8449991227519845e-06 3.6765564922538721e-06 0 -6.6649391059041782e-06 -3.7593862000586535e-06 0 -5.3949199840870185e-06 -2.0542882920464575e-06 0 -2.7685120404847784e-06 -1.2694916851358038e-06 0 -4.0394694316686351e-09 2.9511155341242728e-10 0 -2.7685120404847784e-06 -1.2694916851358038e-06 0 -5.3949199840870185e-06 -2.0542882920464575e-06 0 -8.5518074105649375e-06 4.0271960720160406e-06 0 -3.5994001109247389e-06 1.211655354045762e-06 0 -7.1874523450623463e-06 1.631341320137261e-06 0 -5.476851868716887e-09 -6.9401211333807253e-10 0 -7.1874523450623463e-06 1.631341320137261e-06 0 -3.5994001109247389e-06 1.211655354045762e-06 0 -3.4587115750453425e-05 -2.7169285906868818e-05 0 -4.1500282393767989e-05 -3.1439279733860175e-05 0 -4.0233810730856749e-05 -3.6715714668333786e-05 0 -2.222498283404192e-06 1.0124077375260026e-07 0 -2.424725108121256e-06 3.514312450265758e-07 0 -3.1725983580036927e-06 4.2590168296145125e-07 0 -2.8055334764900569e-05 0.00014351989086073963 0 -7.2634753073657458e-06 0.00013292460460510952 0 -5.8926144912493854e-06 0.00015283913675872708 0 -2.8227949903240938e-05 3.83789714925765e-05 0 -3.0680743894871102e-05 2.8856248921796085e-05 0 -2.1072468882926434e-05 2.558937539488217e-05 0 -1.3186181905482641e-05 8.9471702465532077e-06 0 -1.0635437919131078e-05 1.183001718532592e-05 0 -9.9262860998878292e-06 8.328193508733245e-06 0 -3.7318944186842546e-05 -4.3712882277239349e-05 0 -3.434432480392215e-05 -3.2526498113602984e-05 0 -4.0233810730856749e-05 -3.6715714668333786e-05 0 -9.97268769376047e-05 0.00035786527681978684 0 -0.00012638844085583527 0.00035849605612241133 0 -0.00011285621529477793 0.00034450778577962954 0 -5.043319335588827e-05 -0.00016874592768817751 0 -4.1550734384840768e-05 -0.00016701911450467169 0 -4.5726396072145739e-05 -0.00016292986388348826 0 -2.7007615299096021e-05 0.00035168295417385584 0 -5.0061307447095025e-05 0.00035525913713162688 0 -3.7964585521738412e-05 0.00034126748231195938 0 -8.214228434503569e-05 -0.00017031421416348035 0 -7.0679025041133249e-05 -0.00016994535120760219 0 -7.6275469033679623e-05 -0.00016421923190372683 0 -4.470761261069348e-05 -4.2203883358798296e-05 0 -4.7597782139978846e-05 -4.2892557255869597e-05 0 -4.6053416282720481e-05 -4.467939611069917e-05 0 -3.570280128325625e-05 -4.3682513835171419e-05 0 -3.576714129478931e-05 -4.6826808910474237e-05 0 -3.3722205464936474e-05 -4.2866804442160447e-05 0 -7.8530648985303979e-09 -3.3594268190986111e-09 0 -2.7685120404847789e-06 -1.269491685135804e-06 0 -4.0394694316686351e-09 2.9511155341242728e-10 0 -9.6185327966765686e-09 4.1043441539177098e-09 0 -5.476851868716887e-09 -6.9401211333807253e-10 0 -3.5994001109247389e-06 1.211655354045762e-06 0 -9.6185327966765686e-09 4.1043441539177098e-09 0 -3.5994001109247389e-06 1.211655354045762e-06 0 -8.5518074105649375e-06 4.0271960720160406e-06 0 -7.8530648985303979e-09 -3.3594268190986111e-09 0 -6.6649391059041782e-06 -3.7593862000586535e-06 0 -2.7685120404847784e-06 -1.2694916851358038e-06 0 -3.6032250513686479e-05 -7.1786232962959613e-05 0 -4.3284977805045158e-05 -6.8626307823430757e-05 0 -4.4829462892333859e-05 -8.2414525305938912e-05 0 -1.4709618490586883e-05 -4.0375512904691023e-06 0 -1.7950219392716636e-05 -6.0608340165519193e-06 0 -1.639086479930273e-05 -5.6402675100613693e-06 0 -3.4107987718241917e-05 -1.8273261909622312e-05 0 -3.5436833229781129e-05 -2.2376967823002513e-05 0 -3.266873164599131e-05 -1.7838761183458154e-05 0 -3.3540503215206064e-05 -2.2208221049347719e-05 0 -3.266873164599131e-05 -1.7838761183458154e-05 0 -3.5436833229781129e-05 -2.2376967823002513e-05 0 -9.5264954596029629e-06 -1.1154703119773409e-06 0 -1.2527876565732028e-05 -2.8022373931509608e-06 0 -1.0467893765255133e-05 -1.5802433922621347e-06 0 -4.981244025471914e-06 8.2975450893225655e-07 0 -4.7426746919638186e-06 6.7219817652902835e-07 0 -6.7727316157809936e-06 4.5394293890898559e-07 0 -6.3800272071512378e-06 2.907603930862218e-07 0 -6.7727316157809936e-06 4.5394293890898559e-07 0 -4.7426746919638186e-06 6.7219817652902835e-07 0 -1.7891295147790125e-05 9.0769806424721171e-06 0 -1.5528579614953148e-05 9.8947162139202011e-06 0 -1.1288631619055118e-05 2.0814995463327974e-05 0 -3.4988860240911697e-06 3.1082860810490703e-05 0 -1.1288631619055116e-05 2.0814995463327977e-05 0 -1.5528579614953148e-05 9.8947162139202011e-06 0 -4.6892836908465168e-05 -3.7467195773857479e-05 0 -4.0233810730856749e-05 -3.6715714668333786e-05 0 -4.1500282393767989e-05 -3.1439279733860175e-05 0 -2.5587917068493414e-05 -2.7224603314370896e-05 0 -2.7685885259708766e-05 -3.1075102228249781e-05 0 -2.2647798974864884e-05 -2.5887881179111376e-05 0 -4.3034481506968603e-05 -3.1043728739299212e-05 0 -4.5565946905508391e-05 -3.3904744593552139e-05 0 -4.4272413011435387e-05 -3.3984897931255994e-05 0 -7.6041847099184949e-06 6.0959318054484154e-07 0 -8.9630035408091326e-06 7.4428580585292425e-07 0 -7.4102536673689453e-06 1.5441713414518422e-06 0 -3.2163754641229067e-05 0.0002412973733535616 0 -9.0703282990516483e-06 0.00022822117534404315 0 -1.214705540843797e-05 0.00024871677995137579 0 -7.4053067763830629e-05 -0.00011877710313155418 0 -8.3969542565346446e-05 -0.00011402112953808781 0 -8.4036164942497357e-05 -0.00012386145270518035 0 -2.4680038319081135e-05 -2.2663266025710934e-05 0 -2.3760159906605856e-05 -1.7213069710129338e-05 0 -2.4530400064861356e-05 -1.9649401485949512e-05 0 -2.2601627661685616e-05 -1.8937397420987695e-05 0 -1.7203724082814094e-05 -1.5423883197288871e-05 0 -2.1944090379058216e-05 -1.2583527638465116e-05 0 -0.00011056277054453102 0.00024139294525671868 0 -0.00012738971174013842 0.00022558743184735916 0 -0.00010703321743991543 0.00021643972246364259 0 -4.0873770108859203e-05 -0.00011464853313841887 0 -3.249701715993499e-05 -0.00010541534844307205 0 -3.9844093676501852e-05 -0.00010258039362675097 0 -3.6032250513686479e-05 -7.1786232962959613e-05 0 -3.7675262477103652e-05 -8.3745928805443911e-05 0 -2.9510887822101769e-05 -7.8251226587335937e-05 0 -4.2872657502524979e-05 -3.9019035125452494e-05 0 -4.2283829850453445e-05 -4.1228671950039629e-05 0 -4.0214323188811608e-05 -3.8635763335341644e-05 0 -3.1365579283040422e-05 -3.8890923420881503e-05 0 -2.8140078027868575e-05 -3.4659743833174581e-05 0 -2.9870424106430469e-05 -3.5597245766349903e-05 0 -1.2863318720012625e-05 4.5950622405305184e-06 0 -1.0205251135001424e-05 2.6747841997850989e-06 0 -9.9741192586484648e-06 4.8810272853809413e-06 0 -4.0115199813018058e-05 -4.6556357597177136e-05 0 -3.7979473820559845e-05 -4.6671509077431239e-05 0 -3.8385913088777439e-05 -4.3471580818672425e-05 0 -1.1110077851932897e-05 -1.8391119658090958e-06 0 -8.9569058808531764e-06 -9.1478692957536061e-07 0 -8.5857875052792946e-06 -8.5225935596525177e-07 0 -6.7488046921594329e-06 -1.9787449152688813e-07 0 -8.5857875052792946e-06 -8.5225935596525177e-07 0 -8.9569058808531764e-06 -9.1478692957536061e-07 0 -1.4013096374113259e-05 -1.2534966572090412e-06 0 -1.5720052184557082e-05 -3.84848758072433e-06 0 -1.7802327192214576e-05 -4.2585850350995452e-06 0 -3.4587115750453425e-05 -2.7169285906868818e-05 0 -4.0233810730856749e-05 -3.6715714668333786e-05 0 -3.434432480392215e-05 -3.2526498113602984e-05 0 -9.5264954596029629e-06 -1.1154703119773409e-06 0 -1.0467893765255133e-05 -1.5802433922621347e-06 0 -7.9606786754267366e-06 -3.9635020701614649e-07 0 -9.2201865653148241e-06 -7.8563468885899982e-07 0 -7.9606786754267366e-06 -3.9635020701614649e-07 0 -1.0467893765255133e-05 -1.5802433922621347e-06 0 -1.2527876565732028e-05 -2.8022373931509608e-06 0 -1.1899900287531473e-05 -2.4194960735627305e-06 0 -1.0467893765255133e-05 -1.5802433922621347e-06 0 -4.3840934599035323e-05 -4.68752451342395e-05 0 -4.6053416282720481e-05 -4.467939611069917e-05 0 -4.7596906318000192e-05 -4.7744926539313998e-05 0 -4.9717349215734196e-05 -4.5832738698151629e-05 0 -4.7596906318000192e-05 -4.7744926539313998e-05 0 -4.6053416282720481e-05 -4.467939611069917e-05 0 -3.4332337777746707e-05 -4.5798103738766069e-05 0 -3.576714129478931e-05 -4.6826808910474237e-05 0 -3.6040505438834043e-05 -4.9860033602786535e-05 0 -3.7138215051062016e-05 -4.8826446423907738e-05 0 -3.6040505438834043e-05 -4.9860033602786535e-05 0 -3.576714129478931e-05 -4.6826808910474237e-05 0 -1.7891295147790125e-05 9.0769806424721171e-06 0 -2.1153603819002474e-05 -1.3164905710729797e-06 0 -1.5528579614953148e-05 9.8947162139202011e-06 0 -2.8195077111340608e-05 0.00032404109803195594 0 -3.7964585521738412e-05 0.00034126748231195938 0 -5.1473024742831732e-05 0.00033211679650852621 0 -8.0598724440290461e-05 -0.00015698882753253538 0 -7.6275469033679623e-05 -0.00016421923190372683 0 -6.962170855491086e-05 -0.00015942509537179936 0 -4.1794552811636298e-05 -0.00015534839329759401 0 -5.0956548557052631e-05 -0.00015905743454975546 0 -4.5726396072145739e-05 -0.00016292986388348826 0 -0.00012295920588319291 0.00032800970678322768 0 -9.7299669812868573e-05 0.00033343234759960322 0 -0.00011285621529477793 0.00034450778577962954 0 -0.00011056277054453102 0.00024139294525671868 0 -0.00010703321743991543 0.00021643972246364256 0 -8.90716733349162e-05 0.00022330638032318464 0 -4.0873770108859203e-05 -0.00011464853313841887 0 -3.9844093676501852e-05 -0.00010258039362675097 0 -4.7854389731768728e-05 -0.00010637803496392956 0 -3.6032250513686479e-05 -7.1786232962959613e-05 0 -4.4829462892333859e-05 -8.2414525305938912e-05 0 -3.7675262477103658e-05 -8.3745928805443911e-05 0 -1.8184113604597074e-05 -6.4820238620925793e-06 0 -1.7802327192214576e-05 -4.2585850350995452e-06 0 -1.5720052184557082e-05 -3.84848758072433e-06 0 -5.0061307447095025e-05 0.00035525913713162688 0 -5.1473024742831732e-05 0.00033211679650852621 0 -3.7964585521738412e-05 0.00034126748231195938 0 -7.0679025041133249e-05 -0.00016994535120760219 0 -6.962170855491086e-05 -0.00015942509537179936 0 -7.6275469033679623e-05 -0.00016421923190372683 0 -9.97268769376047e-05 0.00035786527681978684 0 -0.00011285621529477793 0.00034450778577962954 0 -9.7299669812868573e-05 0.00033343234759960322 0 -5.043319335588827e-05 -0.00016874592768817751 0 -4.5726396072145739e-05 -0.00016292986388348826 0 -5.0956548557052631e-05 -0.00015905743454975546 0 -4.0148199573180717e-05 -4.1383211175333412e-05 0 -4.0214323188811608e-05 -3.8635763335341644e-05 0 -4.2283829850453445e-05 -4.1228671950039629e-05 0 -2.0161676422750646e-05 -4.0584251113544959e-05 0 -2.9654479364238158e-05 -3.8687941507291249e-05 0 -2.5539417833013805e-05 -4.9113888186821273e-05 0 -5.46325819034491e-05 -5.1913053416688386e-05 0 -5.2481216845348143e-05 -4.8981619190413139e-05 0 -5.2422596366831373e-05 -4.7786866401358724e-05 0 -3.2327598013865495e-05 -3.9429201693837384e-05 0 -3.2795289569538094e-05 -4.251942579141614e-05 0 -3.4728222475189201e-05 -4.6277346707406035e-05 0 -4.981244025471914e-06 8.2975450893225655e-07 0 -3.5501078935808421e-06 6.8882864727970248e-07 0 -4.7426746919638186e-06 6.7219817652902835e-07 0 -0.00011904639153094394 0.00019651244652757474 0 -0.0001203904955259889 0.00016839421906203906 0 -0.00010117439618806162 0.0001734579370175887 0 -9.8771485216022208e-05 0.00015155724038702168 0 -0.00010117439618806162 0.0001734579370175887 0 -0.0001203904955259889 0.00016839421906203906 0 -3.7682575835768862e-05 -3.5604376906933405e-05 0 -4.041360688869582e-05 -3.5654828605171728e-05 0 -4.0214323188811608e-05 -3.8635763335341644e-05 0 -1.1785875033860923e-05 -1.8838203630471058e-06 0 -1.1899900287531473e-05 -2.4194960735627305e-06 0 -1.3769950494742372e-05 -3.7632234476416235e-06 0 -3.4107987718241917e-05 -1.8273261909622312e-05 0 -3.266873164599131e-05 -1.7838761183458154e-05 0 -3.1783470623292375e-05 -1.4391590179516784e-05 0 -3.0110399165878114e-05 -1.2581012322158636e-05 0 -3.1783470623292375e-05 -1.4391590179516784e-05 0 -3.266873164599131e-05 -1.7838761183458154e-05 0 -8.9535472273504987e-05 0.00019538373753330538 0 -8.90716733349162e-05 0.00022330638032318464 0 -0.00010703321743991543 0.00021643972246364259 0 -4.4472119721241679e-05 -9.3786753739218053e-05 0 -4.7854389731768728e-05 -0.00010637803496392956 0 -3.9844093676501852e-05 -0.00010258039362675097 0 -4.4472119721241679e-05 -9.3786753739218053e-05 0 -3.7675262477103658e-05 -8.3745928805443911e-05 0 -4.4829462892333859e-05 -8.2414525305938912e-05 0 -7.6773251505098979e-06 -2.0464209832045373e-06 0 -1.1626850686805549e-05 -3.1625018323390305e-06 0 -8.8715526657977988e-06 -1.7822373283631213e-06 0 -1.0098005607257455e-05 9.8855835521726519e-07 0 -1.1276475075540832e-05 3.3386163322281794e-07 0 -1.5379790849692052e-05 1.8227208800977456e-06 0 -2.0678939598904772e-05 3.981373982692792e-06 0 -1.5379790849692052e-05 1.8227208800977456e-06 0 -1.9770168942620299e-05 2.7786986362911645e-06 0 -1.5236640821759158e-05 -4.9817208086605394e-06 0 -1.5033324968113528e-05 -4.1799002647628655e-06 0 -1.1626850686805547e-05 -3.1625018323390301e-06 0 -1.5440505054418414e-05 -4.7930674727770592e-06 0 -1.5720052184557082e-05 -3.84848758072433e-06 0 -1.3480780417798773e-05 -2.4288082410866791e-06 0 -0.00011904639153094394 0.00019651244652757474 0 -0.00010703321743991543 0.00021643972246364259 0 -0.00012738971174013842 0.00022558743184735916 0 -3.3106741940649642e-05 -9.2167477097112861e-05 0 -3.9844093676501852e-05 -0.00010258039362675097 0 -3.249701715993499e-05 -0.00010541534844307205 0 -3.3106741940649642e-05 -9.2167477097112861e-05 0 -2.9510887822101769e-05 -7.8251226587335937e-05 0 -3.7675262477103658e-05 -8.3745928805443911e-05 0 -4.996729636407751e-05 -6.4836427648529545e-05 0 -5.8111122633193815e-05 -6.4929402108734318e-05 0 -5.8250882314611319e-05 -7.4090093404865132e-05 0 -4.2872657502524979e-05 -3.9019035125452494e-05 0 -4.0214323188811608e-05 -3.8635763335341644e-05 0 -4.041360688869582e-05 -3.5654828605171728e-05 0 -1.2863318720012625e-05 4.5950622405305184e-06 0 -1.3922687509123721e-05 7.6366383419968129e-06 0 -1.7384178528348604e-05 6.4690288761578865e-06 0 -1.8645207911676643e-05 -9.0190251649991835e-06 0 -1.6210415623922976e-05 -6.0832269769280119e-06 0 -1.8001463076144002e-05 -7.7539437349431899e-06 0 -1.1674055025868025e-05 -2.470902744653243e-06 0 -1.5622033054315955e-05 -4.0302593462040823e-06 0 -1.3093875193913191e-05 -2.7550186975827479e-06 0 -8.9487419297757043e-05 0.00010464893540871951 0 -7.4690234023214915e-05 0.00010635730891958247 0 -8.5936509440714086e-05 0.00012841323271993438 0 -5.9894348824547954e-05 -5.4327754429871863e-05 0 -5.8111122633193815e-05 -6.4929402108734318e-05 0 -5.3458352102246003e-05 -5.5331414105411904e-05 0 -3.2163754641229067e-05 0.0002412973733535616 0 -5.3132130695465286e-05 0.00024191577205284271 0 -4.2460729289305029e-05 0.00022281911080937605 0 -7.4053067763830629e-05 -0.00011877710313155418 0 -6.4721184115778632e-05 -0.00011804837161904803 0 -6.7656886031519845e-05 -0.00010882596938084743 0 -2.8055334764900569e-05 0.00014351989086073963 0 -4.0918239028257369e-05 0.00016488858389131572 0 -5.349428349903905e-05 0.00014601283141715737 0 -1.9048090212820847e-05 -6.1204395561866291e-06 0 -2.0603064766476296e-05 -6.6033777351715424e-06 0 -2.3715315246560995e-05 -8.7770449529335544e-06 0 -1.4760163039156678e-05 -4.6699663109484018e-06 0 -1.3769950494742372e-05 -3.7632234476416235e-06 0 -1.1899900287531473e-05 -2.4194960735627305e-06 0 -5.3788456542514643e-05 -8.2513564801875761e-05 0 -5.8250882314611319e-05 -7.4090093404865132e-05 0 -6.2895916487861188e-05 -8.3256372866094558e-05 0 -4.9717349215734196e-05 -4.5832738698151629e-05 0 -5.2422596366831373e-05 -4.7786866401358724e-05 0 -5.2481216845348143e-05 -4.8981619190413139e-05 0 -3.4332337777746707e-05 -4.5798103738766069e-05 0 -3.4728222475189201e-05 -4.6277346707406035e-05 0 -3.2795289569538094e-05 -4.251942579141614e-05 0 -9.2201865653148241e-06 -7.8563468885899982e-07 0 -1.0467893765255133e-05 -1.5802433922621347e-06 0 -1.1899900287531473e-05 -2.4194960735627305e-06 0 -0.00012638844085583527 0.00035849605612241133 0 -0.000135424127812279 0.00034320124367894698 0 -0.00011285621529477793 0.00034450778577962954 0 -0.00012295920588319291 0.00032800970678322768 0 -0.00011285621529477793 0.00034450778577962954 0 -0.000135424127812279 0.00034320124367894698 0 -4.1794552811636298e-05 -0.00015534839329759401 0 -4.5726396072145739e-05 -0.00016292986388348826 0 -3.8056390020280316e-05 -0.00016056411361802761 0 -4.1550734384840768e-05 -0.00016701911450467169 0 -3.8056390020280316e-05 -0.00016056411361802761 0 -4.5726396072145739e-05 -0.00016292986388348826 0 -2.7007615299096021e-05 0.00035168295417385584 0 -3.7964585521738412e-05 0.00034126748231195938 0 -1.828451136340445e-05 0.00033626973775142157 0 -8.214228434503569e-05 -0.00017031421416348035 0 -7.6275469033679623e-05 -0.00016421923190372683 0 -8.6076958236604587e-05 -0.00016366754956337226 0 -2.8195077111340608e-05 0.00032404109803195594 0 -1.828451136340445e-05 0.00033626973775142157 0 -3.7964585521738412e-05 0.00034126748231195938 0 -8.0598724440290461e-05 -0.00015698882753253538 0 -8.6076958236604587e-05 -0.00016366754956337226 0 -7.6275469033679623e-05 -0.00016421923190372683 0 -3.7682575835768862e-05 -3.5604376906933405e-05 0 -4.0214323188811608e-05 -3.8635763335341644e-05 0 -3.7832565682086622e-05 -3.8898053059606743e-05 0 -4.3372392450992281e-05 -3.5535848684056054e-05 0 -4.1506140527326651e-05 -3.114875277618034e-05 0 -4.4272413011435387e-05 -3.3984897931255994e-05 0 -4.3034481506968603e-05 -3.1043728739299212e-05 0 -4.4272413011435387e-05 -3.3984897931255994e-05 0 -4.1506140527326651e-05 -3.114875277618034e-05 0 -4.0148199573180717e-05 -4.1383211175333412e-05 0 -4.2283829850453445e-05 -4.1228671950039629e-05 0 -4.2304174385710232e-05 -4.3850059308783757e-05 0 -4.470761261069348e-05 -4.2203883358798296e-05 0 -4.2304174385710232e-05 -4.3850059308783757e-05 0 -4.2283829850453445e-05 -4.1228671950039629e-05 0 -1.0723470886337364e-05 1.625449153656659e-05 0 -1.3506378582161955e-05 1.1493425103735467e-05 0 -1.559464374824305e-05 1.233913735114936e-05 0 -1.9679718479552094e-05 1.1372001762590918e-05 0 -2.7185366577413659e-05 1.5761042074894554e-05 0 -2.4098449267379248e-05 9.7861725949984493e-06 0 -3.2414995600857831e-05 1.3985262740442544e-05 0 -2.4098449267379248e-05 9.7861725949984493e-06 0 -2.7185366577413659e-05 1.5761042074894554e-05 0 -1.9048090212820847e-05 -6.1204395561866291e-06 0 -2.2219419941125827e-05 -8.9144845409140157e-06 0 -1.7950219392716636e-05 -6.0608340165519193e-06 0 -8.9487419297757043e-05 0.00010464893540871951 0 -7.3839990694911885e-05 8.7190501177367101e-05 0 -7.4690234023214915e-05 0.00010635730891958247 0 -5.8710149939720144e-05 9.0195184291743107e-05 0 -7.4690234023214915e-05 0.00010635730891958247 0 -7.3839990694911885e-05 8.7190501177367101e-05 0 -1.3186181905482641e-05 8.9471702465532077e-06 0 -1.3506378582161955e-05 1.1493425103735467e-05 0 -1.0635437919131078e-05 1.183001718532592e-05 0 -3.1291105893714142e-05 -3.4472368749804486e-05 0 -3.2944666913700088e-05 -3.874902254568463e-05 0 -2.9870424106430469e-05 -3.5597245766349903e-05 0 -3.1365579283040422e-05 -3.8890923420881503e-05 0 -2.9870424106430469e-05 -3.5597245766349903e-05 0 -3.2944666913700088e-05 -3.874902254568463e-05 0 -9.0871652284115916e-06 1.0372387142645709e-05 0 -1.0635437919131078e-05 1.183001718532592e-05 0 -9.4669090291558214e-06 1.460824025366663e-05 0 -4.6021381334276837e-05 -4.8086595207396913e-05 0 -5.2561769693457475e-05 -4.6930122673687688e-05 0 -5.3458352102246003e-05 -5.5331414105411904e-05 0 -5.9894348824547954e-05 -5.4327754429871863e-05 0 -5.3458352102246003e-05 -5.5331414105411904e-05 0 -5.2561769693457475e-05 -4.6930122673687688e-05 0 -9.4971041164664934e-06 5.9787442242655613e-06 0 -1.2003548552242192e-05 6.2370972017646152e-06 0 -9.9262860998878292e-06 8.328193508733245e-06 0 -9.0871652284115916e-06 1.0372387142645709e-05 0 -9.9262860998878292e-06 8.328193508733245e-06 0 -1.0635437919131078e-05 1.183001718532592e-05 0 -4.3034481506968603e-05 -3.1043728739299212e-05 0 -4.3285381599534174e-05 -2.9558894255310536e-05 0 -4.5565946905508391e-05 -3.3904744593552139e-05 0 -1.4760163039156678e-05 -4.6699663109484018e-06 0 -1.6210415623922979e-05 -6.0832269769280119e-06 0 -1.3769950494742372e-05 -3.7632234476416235e-06 0 -1.5440505054418414e-05 -4.7930674727770592e-06 0 -1.3769950494742372e-05 -3.7632234476416235e-06 0 -1.6210415623922979e-05 -6.0832269769280119e-06 0 -1.4013096374113259e-05 -1.2534966572090412e-06 0 -1.3480780417798773e-05 -2.4288082410866791e-06 0 -1.5720052184557082e-05 -3.84848758072433e-06 0 8.7200854222521774e-06 0.00023287507121355945 0 -1.214705540843797e-05 0.00024871677995137579 0 -9.0703282990516483e-06 0.00022822117534404315 0 -9.3042617444819836e-05 -0.00011893976882096469 0 -8.4036164942497343e-05 -0.00012386145270518035 0 -8.3969542565346446e-05 -0.00011402112953808781 0 -2.517179274362276e-05 -8.8576773288987721e-06 0 -2.3715315246560995e-05 -8.7770449529335544e-06 0 -2.06030647664763e-05 -6.6033777351715424e-06 0 -1.6395026801797622e-09 1.7827973447231674e-10 0 -1.2214580334615019e-06 3.4956887549744172e-07 0 -1.0705300232939216e-06 2.9016956961409331e-07 0 1.2510067822708426e-05 0.00014195700413599226 0 -5.8926144912493854e-06 0.00015283913675872708 0 -7.2634753073657458e-06 0.00013292460460510952 0 -4.0148199573180717e-05 -4.1383211175333412e-05 0 -3.7832565682086622e-05 -3.8898053059606743e-05 0 -4.0214323188811608e-05 -3.8635763335341644e-05 0 -2.1072095760253498e-05 5.7440969036415759e-06 0 -2.4098449267379245e-05 9.7861725949984493e-06 0 -2.8678126652983479e-05 9.2532276597804056e-06 0 -3.2414995600857831e-05 1.3985262740442544e-05 0 -2.8678126652983479e-05 9.2532276597804056e-06 0 -2.4098449267379248e-05 9.7861725949984493e-06 0 -4.648490942724122e-05 -3.2927163766747205e-05 0 -4.5565946905508391e-05 -3.3904744593552139e-05 0 -4.3285381599534174e-05 -2.9558894255310536e-05 0 
</DataArray>
</PointData>
<CellData Scalars="region_id,cross_section_updated,displacement_divergence," Vectors="" Tensors="stress,">
<DataArray type="Float64" Name="region_id" format="ascii">
2 2 2 2 2 2 2 2 2 2 3 3 3 3 3 3 3 3 3 3 1 1 1 1 1 1 1 1 1 1 1 1 1 1 1 1 1 1 1 1 1 1 1 1 1 1 1 1 1 1 1 1 1 1 1 1 1 1 1 1 1 1 1 1 1 1 1 1 1 1 1 1 1 1 1 1 1 1 1 1 1 1 1 1 1 1 1 1 1 1 1 1 1 1 1 1 1 1 1 1 1 1 1 1 1 1 1 1 1 1 1 1 1 1 1 1 1 1 1 1 1 1 1 1 1 1 1 1 1 1 1 1 1 1 1 1 1 1 1 1 1 1 1 1 1 1 1 1 1 1 1 1 1 1 1 1 1 1 1 1 1 1 1 1 1 1 1 1 1 1 1 1 1 1 1 1 1 1 1 1 1 1 1 1 1 1 1 1 1 1 1 1 1 1 1 1 1 1 1 1 1 1 1 1 1 1 1 1 1 1 1 1 1 1 1 1 1 1 1 1 1 1 1 1 1 1 1 1 1 1 1 1 1 1 1 1 1 1 1 1 1 1 1 1 1 1 1 1 1 1 1 1 1 1 1 1 1 1 1 1 1 1 1 1 1 1 1 1 1 1 1 1 1 1 1 1 1 1 1 1 1 1 1 1 1 1 1 1 1 1 1 1 1 1 1 1 1 1 1 1 1 1 1 1 1 1 1 1 1 1 1 1 1 1 1 1 1 1 1 1 1 1 1 1 1 1 1 1 1 1 1 1 1 1 1 1 1 1 1 1 1 1 1 1 1 1 1 1 1 1 1 1 1 1 1 1 1 1 1 1 1 1 1 1 1 1 1 1 1 1 1 1 1 1 1 1 1 1 1 1 1 1 1 1 1 1 1 1 1 1 1 1 1 1 1 1 1 1 1 1 1 1 1 1 1 1 1 1 1 1 1 1 1 1 1 1 1 1 1 1 1 1 1 1 1 1 1 1 1 1 1 1 1 1 1 1 1 1 1 1 1 1 1 1 1 1 1 1 1 1 1 1 1 1 1 1 1 1 1 1 1 1 1 1 1 1 1 1 1 1 1 1 1 1 1 1 1 1 1 1 1 1 1 1 1 1 1 1 1 1 1 1 1 1 1 1 1 1 1 1 1 1 1 1 1 1 1 1 1 1 1 1 1 1 1 1 1 1 1 1 1 1 1 1 1 1 1 1 1 1 1 1 1 1 1 1 1 1 1 1 1 1 1 1 1 1 1 1 1 1 1 1 1 1 1 1 1 1 1 1 1 1 1 1 1 1 1 1 1 1 1 1 1 1 1 1 1 1 1 1 1 1 1 1 1 1 1 1 1 1 1 1 1 1 1 1 1 1 1 1 1 1 1 1 1 1 1 1 1 1 1 1 1 1 1 1 1 1 1 1 1 1 1 1 1 1 1 1 1 1 1 1 1 1 1 1 1 1 1 1 1 1 1 1 1 1 1 1 1 1 1 1 1 1 1 1 1 1 1 1 1 1 1 1 1 1 1 1 1 1 1 1 1 1 1 1 1 1 1 1 1 1 1 1 1 1 1 1 1 1 1 1 1 1 1 1 1 1 1 1 1 1 1 1 1 1 1 1 1 1 1 1 1 1 1 1 1 1 1 1 1 1 1 1 1 1 1 1 1 1 1 1 1 1 1 1 1 1 1 1 1 1 1 1 1 1 1 1 1 1 1 1 1 1 1 1 1 1 1 1 1 1 1 1 1 1 1 1 1 1 1 1 1 1 1 1 1 1 1 1 1 1 1 1 1 1 1 1 1 1 1 1 1 1 1 1 1 1 1 1 1 1 1 1 1 1 1 1 1 1 1 1 1 1 1 1 1 1 1 1 1 1 1 1 1 1 1 1 1 1 1 1 1 1 1 1 1 1 1 1 1 1 1 1 1 1 1 1 1 1 1 1 1 1 1 1 1 1 1 1 1 1 1 1 1 1 1 1 1 1 1 1 1 1 1 1 1 1 1 1 1 1 1 1 1 1 1 1 1 1 1 1 1 1 1 1 1 1 1 1 1 1 1 1 1 1 1 1 1 1 1 1 1 1 1 1 1 1 1 1 1 1 1 1 1 1 1 1 1 1 1 1 1 1 1 1 1 1 1 1 1 1 1 1 1 1 1 1 1 1 1 1 1 1 1 1 1 1 1 1 1 1 1 1 1 1 1 1 1 1 1 1 1 1 1 1 1 1 1 1 1 1 1 1 1 1 1 1 1 1 1 1 1 1 1 1 1 1 1 1 1 1 1 1 1 1 1 1 1 1 1 1 1 1 1 1 1 1 1 1 1 1 1 1 1 1 1 1 1 1 1 1 1 1 1 1 1 1 1 1 1 1 1 1 1 1 1 1 1 1 1 1 1 1 
</DataArray>
<DataArray type="Float64" Name="stress" NumberOfComponents="9" format="ascii">
0.0043290636369099781 -0.0025829939996744235 0 -0.0025829939996744235 0.013109154888688737 0 0 0 0.0043595546313996789 0.010708561865234575 -0.0065252740305042564 0 -0.0065252740305042564 0.032268256502989284 0 0 0 0.010744204592055964 0.014496250192740456 -0.0088087341111068099 0 -0.0088087341111068099 0.043647909684075843 0 0 0 0.014536039969204075 0.018004219339479838 -0.010150242943271033 0 -0.010150242943271033 0.054159575515120871 0 0 0 0.018040948713650178 0.021596675055998625 -0.01081330861520396 0 -0.01081330861520396 0.064920408285104536 0 0 0 0.021629270835275792 0.025466674200158544 -0.010971066661685734 0 -0.010971066661685734 0.076524519362941787 0 0 0 0.025497798390775085 0.029654303393279242 -0.010746852151155119 0 -0.010746852151155119 0.089089715207867695 0 0 0 0.02968600465028674 0.033895238209834276 -0.010307267717364826 0 -0.010307267717364826 0.10181502761934599 0 0 0 0.033927566457295062 0.038159921596851623 -0.0098061608380185291 0 -0.0098061608380185291 0.11456357913097859 0 0 0 0.038180875181957556 0.041871585724219215 -0.0093641509525693983 0 -0.0093641509525693983 0.12586884647836172 0 0 0 0.04193510805064523 0.0077941872259606713 0.0015056484728724268 0 0.0015056484728724268 0.023113302830165633 0 0 0 0.0077268725140315769 0.019778519503246262 0.0036159209508896026 0 0.0036159209508896026 0.059430832282714355 0 0 0 0.019802337946490153 0.027875274334474624 0.0049850927257278884 0 0.0049850927257278884 0.083739540915589716 0 0 0 0.027903703812516084 0.03505351756672772 0.0058151439628619074 0 0.0058151439628619074 0.10529882822376783 0 0 0 0.035088086447623887 0.042007642942493387 0.0063243576890073226 0 0.0063243576890073226 0.12618144659417604 0 0 0 0.042047272384167354 0.048838759705042915 0.0066016849424475662 0 0.0066016849424475662 0.14669439694085579 0 0 0 0.04888328916147467 0.0556353910864427 0.0066689331306181675 0 0.0066689331306181675 0.1670893441943202 0 0 0 0.055681183820190716 0.062190904151091637 0.0066047973650803973 0 0.0066047973650803973 0.18685254247882205 0 0 0 0.06226086165747842 0.068700800105755758 0.0064381440676083423 0 0.0064381440676083423 0.2060421934911025 0 0 0 0.068685748399214569 0.074150818860812748 0.0062864583504130137 0 0.0062864583504130137 0.22372983533275917 0 0 0 0.07447016354839299 -0.058701298483287825 -0.016929163290622048 0 -0.016929163290622048 0.026561716161458526 0 0 0 -0.0080348955804573352 -0.053903657371402458 -0.017396943078991423 0 -0.017396943078991423 0.045872624490724129 0 0 0 -0.0020077582201695754 -0.074219412042617033 -0.011192253572162941 0 -0.011192253572162941 0.039887822919399074 0 0 0 -0.0085828972808044968 -0.076821675027337097 -0.00041459616807407174 0 -0.00041459616807407174 0.04119855141451053 0 0 0 -0.0089057809032066313 -0.16242110744048732 -0.0048887350281477879 0 -0.0048887350281477879 0.0018491461868200554 0 0 0 -0.04014299031341681 -0.11967665742592981 -0.00055615832591553865 0 -0.00055615832591553865 -0.00035705444722411656 0 0 0 -0.030008427968288481 -0.17052306990775667 -0.0020887613249970446 0 -0.0020887613249970446 -0.0014852084201941885 0 0 0 -0.043002069581987705 -0.12387919830958286 -0.0017029083830620835 0 -0.0017029083830620835 -0.00092309799395019071 0 0 0 -0.031200574075883253 -0.13985305019652255 0.0034557619553345909 0 0.0034557619553345909 -0.00045802263022542977 0 0 0 -0.035077768206686982 -0.23636313842408729 -0.010724970794539778 0 -0.010724970794539778 -0.00052140180159487848 0 0 0 -0.059221135056420571 -0.029234529090416437 0.0034711594114296028 0 0.0034711594114296028 -0.016833793373632569 0 0 0 -0.011517080616012254 -0.033703886432792977 0.0046239895710399014 0 0.0046239895710399014 -0.012137879054655729 0 0 0 -0.011460441371862171 -0.061888459186760066 0.0013848689583059405 0 0.0013848689583059405 -0.0097215129948104821 0 0 0 -0.017902493045392622 -0.061400852815628224 -0.0073822288060665557 0 -0.0073822288060665557 -0.020470994492000558 0 0 0 -0.020467961826907199 -0.062402233952168665 0.0030233853577502513 0 0.0030233853577502513 -0.020800706444737686 0 0 0 -0.020800735099226586 -0.071100058097660096 -0.019061756084618603 0 -0.019061756084618603 0.026642139344006333 0 0 0 -0.011114479688413448 0.1473544350001818 0.11841583127240536 0 0.11841583127240536 0.24992590483989485 0 0 0 0.09932008496001915 -0.0010925647863265775 -0.012118064520994509 0 -0.012118064520994509 0.003552096069791677 0 0 0 0.00061488282086630264 -0.0015938150220433656 0.0058865612159020309 0 0.0058865612159020309 0.011482947648954855 0 0 0 0.0024722831567283166 0.00064068325193566977 0.014748492413497405 0 0.014748492413497405 0.018186442470693009 0 0 0 0.0047067814306576139 -0.00072230822634788971 -0.0055640353453467869 0 -0.0055640353453467869 0.0046628657494194314 0 0 0 0.00098513938076782992 -0.013406826077716483 0.022636435051372139 0 0.022636435051372139 0.0051631665514015879 0 0 0 -0.0020609148815788902 -0.010745035067457331 -0.025154111186709516 0 -0.025154111186709516 0.0028933546846507951 0 0 0 -0.0019629200957015924 -0.056808463249870406 0.0043707026250318663 0 0.0043707026250318663 -0.010688588066716598 0 0 0 -0.016874262829146745 0.16091067080718724 -0.0067964075237396393 0 -0.0067964075237396393 0.15592837186861341 0 0 0 0.079209760668950149 -0.25171908139831706 0.016850621114915754 0 0.016850621114915754 0.0078204490127522508 0 0 0 -0.060974658096391188 -0.14000389645474817 -0.0067705297469219435 0 -0.0067705297469219435 0.0030816213444332385 0 0 0 -0.034230568777578685 -0.11386724504331228 -0.023915420234356236 0 -0.023915420234356236 0.019305693290165626 0 0 0 -0.023640387938286683 -0.12536688822618886 0.029767660215072718 0 0.029767660215072718 0.072791509672594623 0 0 0 -0.013143844638398461 -0.14002871004984119 -0.020745243304922681 0 -0.020745243304922681 0.01299257845553084 0 0 0 -0.031759032898577635 -0.063776608235275575 -0.025099633069973697 0 -0.025099633069973697 0.05398735201208768 0 0 0 -0.0024473140557969564 -0.031426527292238549 -0.035278809048119419 0 -0.035278809048119419 0.0057150442020850178 0 0 0 -0.0064278707725384243 -0.035543540966215259 0.044958708495972388 0 0.044958708495972388 0.0038105623021740254 0 0 0 -0.0079332446660105305 -0.033593356571672173 -0.036009780515984469 0 -0.036009780515984469 0.0097635682380765587 0 0 0 -0.005957447083398959 -0.044081969966375478 0.048008385693687039 0 0.048008385693687039 -0.00032313333479461193 0 0 0 -0.011101275825292189 -0.10829619714063238 -0.029535150184708633 0 -0.029535150184708633 0.0054683529407683062 0 0 0 -0.025706961049966059 -0.037617239740785402 -0.049671015118316911 0 -0.049671015118316911 0.074358605163791752 0 0 0 0.009185341355751598 -0.14417706989410173 0.01728186064868753 0 0.01728186064868753 0.019445556535045094 0 0 0 -0.031182878339764131 0.28009086739011391 0.13987340964307626 0 0.13987340964307626 0.083692508620444972 0 0 0 0.090945844002639609 -0.002734187990811876 0.0081523920672309513 0 0.0081523920672309513 0.022943366628589312 0 0 0 0.0050522946594443452 -0.0058726334995259366 -0.00873604092451577 0 -0.00873604092451577 0.063489883816240322 0 0 0 0.014404312579178569 -0.05625900762367271 -0.0256143452643669 0 -0.0256143452643669 0.090699816382096843 0 0 0 0.0086102021896060262 -0.0045527472818034376 -0.022956571546241866 0 -0.022956571546241866 0.074909590892382916 0 0 0 0.017589210902644759 -0.007903885632299712 0.0039253796126237361 0 0.0039253796126237361 -0.0027464305339002237 0 0 0 -0.0026625790415497619 -0.046238734423444131 -0.0063979683540218851 0 -0.0063979683540218851 -0.021619462894377883 0 0 0 -0.016964549329455503 -0.050182070840653681 0.0059875105786864708 0 0.0059875105786864708 -0.016307028724879928 0 0 0 -0.016622274891383401 -0.082989757400970213 0.076753592848388008 0 0.076753592848388008 0.074838424990359365 0 0 0 -0.0020378331026526114 -0.076620789217406685 0.06927548530570099 0 0.06927548530570099 0.052187618477680886 0 0 0 -0.0061082926849313074 0.12574206714061092 0.16519781591733318 0 0.16519781591733318 0.28670948464273066 0 0 0 0.10311288794583541 -0.012749199212622853 0.0079716622045062913 0 0.0079716622045062913 0.00093213680496628815 0 0 0 -0.002954265601913808 -0.021671676281641017 -0.023997766896986406 0 -0.023997766896986406 0.062309943530309053 0 0 0 0.01015956681216712 -0.027299906519372363 -0.011920524294333518 0 -0.011920524294333518 -0.012643679646192618 0 0 0 -0.0099858965413912593 -0.059243249707861233 -0.0235094425771218 0 -0.0235094425771218 0.068345023414534745 0 0 0 0.0022754434266683645 -0.046294878500373296 -0.030695910789977444 0 -0.030695910789977444 0.0038104879664699887 0 0 0 -0.010621097633475809 -0.032539111051876402 -0.0069362509133928801 0 -0.0069362509133928801 0.022080455680999256 0 0 0 -0.0026146638427193003 -0.12305510278072596 0.021106649819282675 0 0.021106649819282675 -0.00065836621023418473 0 0 0 -0.030928367247740174 -0.010273345143221091 -0.0057510008651618927 0 -0.0057510008651618927 0.00040916114200717502 0 0 0 -0.0024660460003033124 -0.014872785819517453 0.02511358759934379 0 0.02511358759934379 0.1184407308845099 0 0 0 0.025891986266247891 -0.02283720309512453 -0.019908287271794611 0 -0.019908287271794611 0.087279817604199214 0 0 0 0.016110653627268785 0.0016013110795283225 0.00075615237565761911 0 0.00075615237565761911 -0.0012676114081395795 0 0 0 8.3424917846741664e-05 -0.028108764024434518 0.00069316364033300548 0 0.00069316364033300548 0.0012594558641381148 0 0 0 -0.0067123270400741286 0.0058085834911793845 -0.071619863393160843 0 -0.071619863393160843 0.117230032638669 0 0 0 0.030759654032462034 -0.025768725239231405 -0.00088033221365686753 0 -0.00088033221365686753 0.00075866902593846319 0 0 0 -0.0062525140533232215 -0.036207945352921156 -0.010847112724216894 0 -0.010847112724216894 0.0043454174548629432 0 0 0 -0.0079656319745145254 -0.049713504731319635 -0.040179959953733836 0 -0.040179959953733836 0.010771540596218987 0 0 0 -0.0097354910337751344 -0.11423419405313404 -0.0095814463027133791 0 -0.0095814463027133791 -0.019206935512358646 0 0 0 -0.033360282391373175 -0.1516404870236687 0.0035507959148202827 0 0.0035507959148202827 -0.024190183890268082 0 0 0 -0.043957667728484202 0.0027061430385406865 0.0045021735879276492 0 0.0045021735879276492 0.010127307700944619 0 0 0 0.0032083626848713126 0.0048252267775628077 -0.0057573096580723626 0 -0.0057573096580723626 0.050066363000879077 0 0 0 0.013722897444610527 -0.11177509991248896 -0.0085808699976540233 0 -0.0085808699976540233 -0.027744436793016691 0 0 0 -0.034879884176376413 -0.089829426905183959 -0.00091515223092028227 0 -0.00091515223092028227 -0.021454791491100828 0 0 0 -0.027821054599071193 -0.038375368130544034 0.00028652689159247569 0 0.00028652689159247569 -0.019977241591962045 0 0 0 -0.014588152430626528 -0.11976970987515449 0.0027730829051892322 0 0.0027730829051892322 -0.00037874150992642762 0 0 0 -0.030037112846270232 -0.16590428729840104 -0.010389604770554128 0 -0.010389604770554128 0.0013830996044350424 0 0 0 -0.041130296923491474 -0.038797135523885917 -0.021669369166308308 0 -0.021669369166308308 -0.008856845770387145 0 0 0 -0.011913495323568279 -0.042328869417701101 -0.028233709870979867 0 -0.028233709870979867 0.0045399624218779855 0 0 0 -0.0094472267489558448 0.0035759065548320312 0.024021482499760882 0 0.024021482499760882 0.1419114960607516 0 0 0 0.036371850653895976 -0.0068985227399729065 -0.0033007381195311325 0 -0.0033007381195311325 -0.0023092988459020858 0 0 0 -0.0023019553964686856 -0.040469664417574963 -0.0233788920591321 0 -0.0233788920591321 -0.010906257233928351 0 0 0 -0.012843980412875794 -0.030638539162115598 -0.012529217446737628 0 -0.012529217446737628 0.0006444369796363425 0 0 0 -0.0074985255456197844 -0.068798926443743413 0.064493967726318102 0 0.064493967726318102 -0.00083786833616361633 0 0 0 -0.017409198694976702 -0.13227206670218239 0.00047877207993706546 0 0.00047877207993706546 -0.044114956887893721 0 0 0 -0.044096755897519033 -0.10161531460408969 -0.0070225999128260361 0 -0.0070225999128260361 -0.033890844636387196 0 0 0 -0.033876539810119226 -0.046548607689415253 -0.0060753927857491877 0 -0.0060753927857491877 -0.021866680565564778 0 0 0 -0.01710382206374501 -0.011853471243439273 0.030650732597747865 0 0.030650732597747865 0.01363701812128415 0 0 0 0.00044588671946099723 -0.012292599322989983 -0.018428474610075796 0 -0.018428474610075796 0.0013730967554315132 0 0 0 -0.0027298756418897563 -0.03823757538636309 -0.03779402716472624 0 -0.03779402716472624 0.0086493332765739811 0 0 0 -0.0073970605274473883 -0.033967041138904495 0.0034889612073667627 0 0.0034889612073667627 -0.015560902877661405 0 0 0 -0.012381986004141473 -0.085003347441231766 -0.016931858928678031 0 -0.016931858928678031 -0.008749500132578629 0 0 0 -0.023438211893452607 -0.038427353708881062 -0.011534021289470604 0 -0.011534021289470604 0.0027672906927495022 0 0 0 -0.0089150157540329178 -0.030917522604773012 0.0057469849787262807 0 0.0057469849787262807 -0.013965233061661805 0 0 0 -0.011220688916608705 -0.035183372401777102 0.0053217781756379314 0 0.0053217781756379314 -0.012268417206034768 0 0 0 -0.011862947401952966 -0.037671205156817468 0.0039004465350747858 0 0.0039004465350747858 -0.014834086639705377 0 0 0 -0.013126322949130711 -0.03155070215684716 -0.003545182679189407 0 -0.003545182679189407 0.017650199214697682 0 0 0 -0.0034751257355372378 -0.038831991600786306 -0.038049354653955564 0 -0.038049354653955564 0.028048545759026211 0 0 0 -0.0026958614604400272 -0.026871855877495132 -0.011403039714837943 0 -0.011403039714837943 0.0024670124110497405 0 0 0 -0.0061012108666112508 -0.058919486759557937 -0.027840499055240352 0 -0.027840499055240352 0.089493030592181291 0 0 0 0.007643385958155835 -0.020276175149238629 0.020393657481690752 0 0.020393657481690752 0.15951429724167188 0 0 0 0.034809530523108201 0.00054989808893712855 -0.00077319911333173486 0 -0.00077319911333173486 -0.00088789641648290285 0 0 0 -8.4499581886277042e-05 -0.0072036104280273072 -0.0058904451517224274 0 -0.0058904451517224274 -0.0034749105324136664 0 0 0 -0.0026696302401101324 -0.015750280814811557 0.016786919099301301 0 0.016786919099301301 0.16102115838692299 0 0 0 0.036317719393027748 -0.041577761433570663 0.021740685475284308 0 0.021740685475284308 0.12426757156860395 0 0 0 0.020672452533758358 -0.046471301849630456 0.004357751751981242 0 0.004357751751981242 -0.0094474830131733058 0 0 0 -0.013979696215700941 -0.051017798936709602 0.0033515545050104897 0 0.0033515545050104897 -0.011217514385277481 0 0 0 -0.015558828330496773 0.0023455321651602024 0.037469537117220786 0 0.037469537117220786 0.048044717677159454 0 0 0 0.012597562460579859 -0.024503963155566577 0.040966463311647661 0 0.040966463311647661 0.039097024121616641 0 0 0 0.0036482652415126271 -0.0495725356026087 -0.039199507318613803 0 -0.039199507318613803 0.028033485462369445 0 0 0 -0.0053847625350598172 0.0009920439266490888 -0.009528088140623725 0 -0.009528088140623725 0.0014038461428284021 0 0 0 0.00059897251736940049 -0.00039402711252400913 0.0071969616014080223 0 0.0071969616014080223 -0.013277771563295682 0 0 0 -0.0034179496689549782 -0.061143539733119916 0.0091607122039003078 0 0.0091607122039003078 0.080649398314842635 0 0 0 0.0048764646454307059 -0.0082002333872197575 0.0079559321520203414 0 0.0079559321520203414 -0.004953638840231811 0 0 0 -0.0032884680568630031 -0.02186792468648413 -0.018509495751783511 0 -0.018509495751783511 0.087520295853817043 0 0 0 0.016413092791833339 -0.12782235353362004 0.002880408956863395 0 0.002880408956863395 0.00092844340958497806 0 0 0 -0.031723477531008765 -0.20433941026381597 -0.0094866746044117434 0 -0.0094866746044117434 0.0014338420832113175 0 0 0 -0.050726392045151079 -0.022467903974578651 -0.035565545520777939 0 -0.035565545520777939 0.0097828433318935537 0 0 0 -0.0031712651606712605 0.11507863113832145 -0.06986847014879638 0 -0.06986847014879638 0.056060732049812434 0 0 0 0.042784840797033541 -0.031931569350741706 -0.022548363759497189 0 -0.022548363759497189 -0.0038564848422117937 0 0 0 -0.0089470135482383473 -0.03342884986553539 -0.029016394827757808 0 -0.029016394827757808 -0.00067516162326144991 0 0 0 -0.0085260028721991926 -7.586504411761274e-05 -0.0081063622099886157 0 -0.0081063622099886157 0.018730525449766815 0 0 0 0.0046636651014123559 -0.0019183113605936164 0.0066532034297197562 0 0.0066532034297197562 0.014913355375503201 0 0 0 0.0032487610037281733 -0.00017705312012905594 0.0095725888975350948 0 0.0095725888975350948 0.03998583647832632 0 0 0 0.0099521958395487609 -0.0019156704891879462 -0.0056399294108693265 0 -0.0056399294108693265 0.0061933311201597466 0 0 0 0.001069415157743172 -0.078648535812567921 0.039908429969225612 0 0.039908429969225612 0.100772780339071 0 0 0 0.0055310611316257141 -0.044081646212493719 -0.019596918529015517 0 -0.019596918529015517 0.00096797470615261894 0 0 0 -0.010778417876585344 -0.036716434496779589 -0.016943864205711645 0 -0.016943864205711645 -0.0045275439411799831 0 0 0 -0.010310994609489928 -0.034406794351283077 -0.016915580130051844 0 -0.016915580130051844 -0.0061650731131732972 0 0 0 -0.010142966866114156 -0.01837103282083985 -0.038866647361711831 0 -0.038866647361711831 0.01820434720295383 0 0 0 -4.1671404471421702e-05 -0.18100051424782604 0.025180196477427974 0 0.025180196477427974 0.003464556678589803 0 0 0 -0.04438398939230892 -0.07988105579583335 -0.0034843542639809294 0 -0.0034843542639809294 0.024629167373947269 0 0 0 -0.013812972105471499 -0.06707489290408547 -0.012380342675610154 0 -0.012380342675610154 0.022553375529473563 0 0 0 -0.011130379343652907 -0.021630707462500731 0.0045269205272621127 0 0.0045269205272621127 -0.016022017790771725 0 0 0 -0.0094131813133181419 -0.13125072368105273 0.045039186151155763 0 0.045039186151155763 -0.0027104113974814048 0 0 0 -0.033490283769633367 -0.11297050720604737 0.0053804911033960845 0 0.0053804911033960845 0.0054114333516550039 0 0 0 -0.026889768463598113 -0.11214235139579606 -0.0044110909994805325 0 -0.0044110909994805325 0.006791991781522233 0 0 0 -0.026337589903568465 -0.18294617379213463 0.0018693007314220522 0 0.0018693007314220522 0.015045439126311844 0 0 0 -0.041975183666455695 -0.17800779146270146 -0.021277256551183288 0 -0.021277256551183288 0.015055524472058268 0 0 0 -0.040738066747660784 -0.03805533622196771 -0.013935675625518729 0 -0.013935675625518729 -0.0028024946570094217 0 0 0 -0.010214457719744212 -0.10886297824940061 -0.011182740529335045 0 -0.011182740529335045 0.0020987658977188461 0 0 0 -0.026691053087920469 0.019012312918601282 0.078936244152083224 0 0.078936244152083224 0.031825617613143287 0 0 0 0.012709482632936253 -0.06402479318725382 -0.018926657433578506 0 -0.018926657433578506 0.061992255282559632 0 0 0 -0.000508134476173548 -0.031912674607963612 0.017689249385636017 0 0.017689249385636017 0.024906088104810417 0 0 0 -0.0017516466257882944 -0.037395757995794421 0.03293949621772585 0 0.03293949621772585 -0.00483113573912064 0 0 0 -0.01055672343372871 -0.0304990911764913 -0.033501316561087013 0 -0.033501316561087013 0.022565740276739188 0 0 0 -0.0019833377249380835 -0.037507894742126298 -0.03657458506880476 0 -0.03657458506880476 0.032094779643669927 0 0 0 -0.0013532787746141171 -0.0076108898859427732 0.0066660030419883054 0 0.0066660030419883054 -0.011142032875438579 0 0 0 -0.0046882306903454074 -0.035864139070021922 -0.016920837282067946 0 -0.016920837282067946 -0.011001686290657009 0 0 0 -0.011716456340169712 -0.056984362298702462 -0.010676903596053177 0 -0.010676903596053177 -0.024329538861231421 0 0 0 -0.020328475289983473 -0.057584536515678408 0.0061250750927909284 0 0.0061250750927909284 -0.017308615204239826 0 0 0 -0.018723287929979564 -0.035579477813813265 -0.041840431667868105 0 -0.041840431667868105 0.020023715510677831 0 0 0 -0.0038889405757839279 -0.087478770565843203 -0.026508645803990878 0 -0.026508645803990878 -0.0055139099743472808 0 0 0 -0.023248170135047638 -0.10902314793411411 -0.0057716897499581893 0 -0.0057716897499581893 0.031185569568615623 0 0 0 -0.01945939459137469 -0.03733680449922723 -0.0020623690147898274 0 -0.0020623690147898274 -0.022155508171714966 0 0 0 -0.014873078167735549 -0.035295080617284744 0.00058262640731725841 0 0.00058262640731725841 -0.018090291643392022 0 0 0 -0.013346343065169193 -0.044662682626409357 0.0035847792556361331 0 0.0035847792556361331 -0.013900411450914928 0 0 0 -0.014640773519331074 -0.04499861685600743 0.0046608954072386299 0 0.0046608954072386299 -0.014506043380327568 0 0 0 -0.014876165059083749 -0.095070090432342838 -0.019345718230374259 0 -0.019345718230374259 0.032023255746148838 0 0 0 -0.015761708671548497 -0.04306881765800924 0.014164695316230836 0 0.014164695316230836 0.02268903140210049 0 0 0 -0.0050949465639771874 -0.032527320045754302 -0.002477488717449663 0 -0.002477488717449663 -0.016279490422381519 0 0 0 -0.012201702617033964 -0.060909831037853378 -0.023543060867021459 0 -0.023543060867021459 -0.0062039128474099259 0 0 0 -0.016778435971315821 -0.046499953749592475 0.017033909694697286 0 0.017033909694697286 0.065811812054083485 0 0 0 0.004827964576122749 -0.059739110584522873 -0.0023417922789863502 0 -0.0023417922789863502 0.0023225073105047067 0 0 0 -0.014354150818504557 -0.057480057989509316 -0.00098637736081853833 0 -0.00098637736081853833 0.0082801905451519997 0 0 0 -0.012299966861089341 -0.13225324572709651 0.00046288565118949643 0 0.00046288565118949643 -0.044054276721859527 0 0 0 -0.044076880612239015 -0.1016017577964342 -0.0070105433696445608 0 -0.0070105433696445608 -0.033846979587931619 0 0 0 -0.033862184346091451 0.097507921037942397 0.043944597253584905 0 0.043944597253584905 0.049101902629321403 0 0 0 0.036652455916815894 -0.047252705238486653 0.002696735367096918 0 0.002696735367096918 3.0565025216269803e-05 0 0 0 -0.011805535053317599 -0.073516080925833199 -0.013522329376608817 0 -0.013522329376608817 0.074534792857888277 0 0 0 0.00025467798301381794 -0.016416646077791808 0.00092478217199798429 0 0.00092478217199798429 -0.026328497321925326 0 0 0 -0.010686285849929256 -0.12250950884630767 0.0044641120612548962 0 0.0044641120612548962 0.0013309292651922239 0 0 0 -0.030294644895278874 -0.18994511511596265 -0.011361016481068589 0 -0.011361016481068589 0.0016599849422793411 0 0 0 -0.047071282543420828 -0.036769670958957737 -0.014352341314161021 0 -0.014352341314161021 -0.015610526425490323 0 0 0 -0.013095049346112012 -0.11153004641129133 0.0080137660489831286 0 0.0080137660489831286 0.00047327437682950389 0 0 0 -0.027764193008615486 -0.13881201882994165 -0.032044841829410503 0 -0.032044841829410503 0.00035998963732131184 0 0 0 -0.034613007298155085 -0.11263465353154421 0.004287908488556022 0 0.004287908488556022 6.1410469238798449e-05 0 0 0 -0.028143310765576399 -0.073642888857445701 0.0021916581101183302 0 0.0021916581101183302 -0.0052675867620374005 0 0 0 -0.019727618904870788 -0.067210918486826782 -0.013163894589470457 0 -0.013163894589470457 -0.012866280540309347 0 0 0 -0.020019299756784029 -0.10192750238640375 -0.023856151051072 0 -0.023856151051072 0.01326648533372532 0 0 0 -0.022165254263169565 -0.044018945058335118 -0.014652146994606929 0 -0.014652146994606929 -0.0015538220736859287 0 0 0 -0.011393191783005296 -0.024132532933890172 0.040532100622161282 0 0.040532100622161282 0.047031340791853893 0 0 0 0.0057247019644908193 -0.030145268286701166 -0.022286893845004485 0 -0.022286893845004485 -0.0059926537719703354 0 0 0 -0.0090344805146675977 -0.040578947239587423 -0.0017842788440017602 0 -0.0017842788440017602 -0.019025033924110129 0 0 0 -0.014900995290924392 -0.0501451032538461 0.0029160912256418372 0 0.0029160912256418372 -0.015709052234118968 0 0 0 -0.016463538871991274 -0.070634435717988608 -0.01329038110952481 0 -0.01329038110952481 -0.026342332950534036 0 0 0 -0.024244192167130668 -0.066060988406331012 0.0055982716327175226 0 0.0055982716327175226 -0.018950167356204906 0 0 0 -0.021252788940633982 -0.066408205364918496 -0.014092502286296174 0 -0.014092502286296174 0.013314528230556399 0 0 0 -0.013273419283590535 -0.065754355126310407 -0.02446506664186468 0 -0.02446506664186468 0.017528685363399577 0 0 0 -0.012056417440727732 -0.06535769784765455 0.076250332083280289 0 0.076250332083280289 0.016369314504948829 0 0 0 -0.012247095835676514 -0.012379587241312717 0.09970618246301477 0 0.09970618246301477 0.055488803391235964 0 0 0 0.010777304037480784 0.042557333431019945 0.0017238791091778033 0 0.0017238791091778033 0.066589576936491091 0 0 0 0.02728672759187778 -0.078527059818927922 -0.0094935569882040327 0 -0.0094935569882040327 0.057471324840959098 0 0 0 -0.0052639337444922302 -0.033465846904182861 0.0040325176192510821 0 0.0040325176192510821 -0.014601259856021925 0 0 0 -0.012016776690051193 -0.044385334110029789 -0.020830310280301953 0 -0.020830310280301953 -0.0068808972032401439 0 0 0 -0.012816557828317504 -0.062457518104368948 0.055289362784167184 0 0.055289362784167184 0.0018172831788989541 0 0 0 -0.015160058731367387 -0.022472927804132015 -0.00567125588435205 0 -0.00567125588435205 0.04751155840624377 0 0 0 0.0062596576505279389 -0.024279246004061547 -0.010676795456304455 0 -0.010676795456304455 -0.012523608583190071 0 0 0 -0.0092007136468128942 -0.055605245322421601 0.0021848811832269363 0 0.0021848811832269363 -0.0079361044334161808 0 0 0 -0.015885337438959434 -0.10330657456565773 0.024039357580080967 0 0.024039357580080967 0.056781784933987112 0 0 0 -0.011631197407917571 -0.12455303984605616 0.0010236875801169236 0 0.0010236875801169236 -0.0022197598993733275 0 0 0 -0.031693199936357365 -0.18169398715232521 -0.0046625240848958459 0 -0.0046625240848958459 -0.0044773143628294154 0 0 0 -0.046542825378788663 -0.035348693352743585 -0.020800085760290569 0 -0.020800085760290569 -0.0016850384838744681 0 0 0 -0.0092584329591545028 -0.078741366218159733 0.0007063914642185667 0 0.0007063914642185667 -0.014566682623481153 0 0 0 -0.023327012210410225 -0.08584529454437681 -0.008675763370398536 0 -0.008675763370398536 -0.023692857935891317 0 0 0 -0.027384538120067033 -0.21572344464187074 0.0057022016911569828 0 0.0057022016911569828 0.0043538566510596954 0 0 0 -0.052842396997702767 -0.12519461353132338 -0.0026867400737208835 0 -0.0026867400737208835 0.0011787257592537626 0 0 0 -0.031003971943017392 -0.0043710116480277506 0.032980732184031691 0 0.032980732184031691 0.14298952293175216 0 0 0 0.034654627820931067 0.07279254267763216 0.0015091005639801813 0 0.0015091005639801813 0.34662077468547364 0 0 0 0.10485332934077649 -0.04178609682270959 -0.045478844352457526 0 -0.045478844352457526 0.025694920575744684 0 0 0 -0.0040227940617411917 -0.057117599609393166 -0.039506493489121441 0 -0.039506493489121441 0.016564272261622159 0 0 0 -0.010138331836942793 -0.037752456662420664 -0.045277651478137518 0 -0.045277651478137518 0.061698128567357818 0 0 0 0.00598641797623428 -0.0034769094941142775 0.0025158217207986722 0 0.0025158217207986722 -0.022143973187372712 0 0 0 -0.0064052206703716918 -0.037962755436555036 7.1144701441338968e-05 0 7.1144701441338968e-05 -0.018412425846434773 0 0 0 -0.014093795320747454 -0.087121654142812865 -0.0095891987416418245 0 -0.0095891987416418245 0.014205827302243956 0 0 0 -0.018228956710142186 0.00049942402408320596 -0.0026255582843936059 0 -0.0026255582843936059 -0.0087366712764278542 0 0 0 -0.002059311813086051 -0.18372491453137577 0.026875605287529192 0 0.026875605287529192 -0.00078595155401478545 0 0 0 -0.046127716521347638 -0.034001410965889267 0.032250641239248257 0 0.032250641239248257 -0.0044677577583378536 0 0 0 -0.0096172921810566692 -0.024885528874352247 -0.033262757363782924 0 -0.033262757363782924 0.019486743149379482 0 0 0 -0.0013496964312430526 -0.04784229471312311 0.0024379660080943622 0 0.0024379660080943622 0.018128649726498053 0 0 0 -0.0074284112466562659 -0.074624289487532108 -0.020355060105285469 0 -0.020355060105285469 0.017001095996543203 0 0 0 -0.014405798372747275 -0.032421988159500537 0.010235619365835058 0 0.010235619365835058 -0.00094456865079679819 0 0 0 -0.0083416392025743406 -0.027932407638404485 0.015216739179224045 0 0.015216739179224045 0.0091502039398458912 0 0 0 -0.0046955509246396458 -0.10569552628851916 -0.022940588378420321 0 -0.022940588378420321 -0.0022124107696800815 0 0 0 -0.026976984264549815 -0.050894002966275498 -0.037031219675395577 0 -0.037031219675395577 0.00538253715320125 0 0 0 -0.011377866453268604 -0.15279757625224336 -0.018595365594447993 0 -0.018595365594447993 -0.0079506479829577238 0 0 0 -0.040187056058800262 -0.038196280628701507 0.055507050270768188 0 0.055507050270768188 0.0086059130850486554 0 0 0 -0.0073975918859134904 -0.041209090162371051 0.057924953985126759 0 0.057924953985126759 0.0072115319674796452 0 0 0 -0.0084993895487229659 -0.044151829661983388 0.060262496349527961 0 0.060262496349527961 0.0019482115721141113 0 0 0 -0.01055090452246743 -0.039675612573174535 -0.035968506431366842 0 -0.035968506431366842 0.0053001885042132102 0 0 0 -0.0085938560172401646 -0.047464126601022553 -0.035098803068764561 0 -0.035098803068764561 0.002662783771916831 0 0 0 -0.011200335707276458 0.045872042193800922 0.044659738152706588 0 0.044659738152706588 0.078739544321041022 0 0 0 0.031152896628710472 -0.038809329819448943 -0.0023760855159353019 0 -0.0023760855159353019 -0.012943601210230261 0 0 0 -0.012938232757419801 -0.045871576971487277 0.0039719724782091041 0 0.0039719724782091041 -0.015292033123632245 0 0 0 -0.015290902523779881 -0.045713093985220797 0.0043401212778661083 0 0.0043401212778661083 0.0025944078393257443 0 0 0 -0.010779671536473754 -0.01464741864063826 -0.021615133657267888 0 -0.021615133657267888 0.1023301802565747 0 0 0 0.021920690403984089 -0.12443654082988853 -0.029267975494211722 0 -0.029267975494211722 -0.0036263894729366974 0 0 0 -0.032015732575706328 -0.036820852759219383 0.0023911787884446688 0 0.0023911787884446688 -0.01579160140813576 0 0 0 -0.013153113541838783 -0.1821778651636351 -0.0072355136608879267 0 -0.0072355136608879267 -0.0045065599935358094 0 0 0 -0.046671106289292746 -0.12210383533716147 0.0019772817201632459 0 0.0019772817201632459 -0.0012796053582172368 0 0 0 -0.030845860173844684 -0.11075378455821683 -0.012457230150877296 0 -0.012457230150877296 0.00021254454569885617 0 0 0 -0.027635310003129465 -0.040637202153695207 0.004546092556517365 0 0.004546092556517365 -0.011931094199286171 0 0 0 -0.013142074088245342 -0.031741717956519373 -0.0065853164851162327 0 -0.0065853164851162327 0.023789615406645509 0 0 0 -0.0019880256374683949 -0.056063584830045012 0.011007394420023915 0 0.011007394420023915 0.044903109378722036 0 0 0 -0.0027901188628307663 -0.010374113161175987 0.065428591409517289 0 0.065428591409517289 0.014076695250029414 0 0 0 0.00092564552221340718 -0.031969611296961117 0.0041026141884581207 0 0.0041026141884581207 -0.016815581333493729 0 0 0 -0.012196298157613715 -0.025067223468525857 0.030083335850931037 0 0.030083335850931037 -0.0054388202585204937 0 0 0 -0.0076265109317614765 -0.021617803688340098 -0.030552618994429515 0 -0.030552618994429515 0.0071242483836053694 0 0 0 -0.0036233888261840708 -0.040841164203524738 0.0045428578264240229 0 0.0045428578264240229 -0.012576153213511975 0 0 0 -0.013354329354259181 -0.06960732399645024 0.0014024793826300573 0 0.0014024793826300573 0.058299339274372634 0 0 0 -0.0028269961805193872 -0.011247873598458025 0.024285766990395086 0 0.024285766990395086 0.025702970397393443 0 0 0 0.0036137741997337436 -0.0064677197117861684 0.01847260117552052 0 0.01847260117552052 -0.0026692121890965481 0 0 0 -0.0022842329752210677 -0.0058992892283105114 -0.014764107369087009 0 -0.014764107369087009 -0.0059809223164757341 0 0 0 -0.0029700528861964504 -0.0090505629813716348 -0.020720282597127548 0 -0.020720282597127548 0.010933176271863854 0 0 0 0.00047065332262297144 -0.13692677589806199 0.0023361221478541139 0 0.0023361221478541139 0.033033893775922141 0 0 0 -0.025973220530534996 -0.0859890404476953 -0.024200119605789605 0 -0.024200119605789605 0.0099839596341241843 0 0 0 -0.019001270203392942 -0.096928645599551694 -0.024169412386166073 0 -0.024169412386166073 0.009652598352759223 0 0 0 -0.021819011811698125 -0.15260157490046977 0.053932229590867908 0 0.053932229590867908 0.022457396168038102 0 0 0 -0.03253604468310789 -0.12795713201109649 0.054096639501191313 0 0.054096639501191313 0.023448173396252159 0 0 0 -0.026127239653710999 -0.052820439382696059 0.0021379350845067875 0 0.0021379350845067875 -0.014334387602458826 0 0 0 -0.016788706746288719 0.079518666071742961 0.037105702799632961 0 0.037105702799632961 0.04106380115735897 0 0 0 0.030145616807275455 -0.11031763965869604 -0.0090941915445753949 0 -0.0090941915445753949 -0.025428996052734996 0 0 0 -0.033936658927857764 -0.090583640184343381 -0.00065815306709610458 0 -0.00065815306709610458 -0.017288609731812878 0 0 0 -0.026968062479039059 -0.071083134916883797 -0.016684680977308047 0 -0.016684680977308047 0.03820237333733472 0 0 0 -0.0082201903948872605 -0.070224515873132179 0.0037183318090085521 0 0.0037183318090085521 -0.010951867329484716 0 0 0 -0.020294095800654229 -0.070330855124137046 -0.013877785375903335 0 -0.013877785375903335 -0.023861231853479881 0 0 0 -0.023548021744404221 -0.15436589266510695 -0.023527505649082681 0 -0.023527505649082681 0.0031018024727034743 0 0 0 -0.03781602254810093 -0.15598523961129318 -0.024476275004714512 0 -0.024476275004714512 -0.00096748545693750576 0 0 0 -0.039238181267057692 -0.01633492692256322 0.037163893933308878 0 0.037163893933308878 0.047997897425065439 0 0 0 0.0079157426256255548 -0.014469010764813772 -0.01666195522441255 0 -0.01666195522441255 0.0012975824964169824 0 0 0 -0.0032928570670991419 -0.004568086659814492 -0.0032212334645859153 0 -0.0032212334645859153 0.021831426615782402 0 0 0 0.0043158349889919224 -0.0017088670229770675 0.0038441382749566655 0 0.0038441382749566655 -0.0031095103233509391 0 0 0 -0.0012045943365820433 -0.06983200018287089 0.00020895101734923552 0 0.00020895101734923552 0.0019803832009457067 0 0 0 -0.016962904245481296 -0.0048446683963167814 -0.0049141910118035703 0 -0.0049141910118035703 0.078360068857324272 0 0 0 0.018378850115251893 -0.0047874015162235328 -0.0025380654757473087 0 -0.0025380654757473087 0.14000582342317647 0 0 0 0.033804605476738137 -0.027925938903229624 -0.013888379374295046 0 -0.013888379374295046 0.015987104007931074 0 0 0 -0.0029847087238245966 -0.10190030451587939 -0.011936719613706681 0 -0.011936719613706681 0.012693890560822818 0 0 0 -0.022301603488764116 -0.0005821404008305997 0.000694843846700266 0 0.000694843846700266 -0.01880414941055375 0 0 0 -0.0048465724528461429 -0.15341745249476885 -0.032476570801406007 0 -0.032476570801406007 0.0099294263959083251 0 0 0 -0.035872006524715117 -0.049688034736190149 0.0032727366682038838 0 0.0032727366682038838 0.013135066493571323 0 0 0 -0.0091382420606546944 -0.065519645757380063 -0.034833757813242355 0 -0.034833757813242355 0.028946041193731897 0 0 0 -0.0091434011409121108 -0.062608740538571017 -0.031710565670981461 0 -0.031710565670981461 0.025788111714025508 0 0 0 -0.0092051572061362941 -0.072432704763053912 0.0046746968000194386 0 0.0046746968000194386 -0.00049415724133143601 0 0 0 -0.018231715501096347 -0.085345601826450845 -0.019993282699919568 0 -0.019993282699919568 0.018136525564146577 0 0 0 -0.016802269065576081 -0.079273540251692171 0.0016648813824770466 0 0.0016648813824770466 -0.0012664295122275099 0 0 0 -0.020134992440979903 -0.065005177114737037 -0.015392532905325246 0 -0.015392532905325246 -0.017644630090280056 0 0 0 -0.020662451801254273 -0.1057371147773957 -0.011854637616919933 0 -0.011854637616919933 0.01133351118942616 0 0 0 -0.023600900896992377 -0.17435770553971167 0.021458294814151291 0 0.021458294814151291 0.039918590034463075 0 0 0 -0.03360977887631203 -0.11054432848449837 -0.01055462886698726 0 -0.01055462886698726 -0.025247929444803835 0 0 0 -0.033948064482325555 -0.08903747391222365 0.00058409705278003978 0 0.00058409705278003978 -0.01999437085769485 0 0 0 -0.027257961192479623 -0.082776411302974973 0.0054600646804262472 0 0.0054600646804262472 -0.0038551849784582148 0 0 0 -0.021657899070358273 -0.093708298026828993 -0.022455775344024546 0 -0.022455775344024546 -0.013932665041540129 0 0 0 -0.026910240767092267 -0.048343039994624463 -0.0045971923993753799 0 -0.0045971923993753799 -0.02332174269594833 0 0 0 -0.017916195672643204 -0.01640765644784474 -0.04922437810944541 0 -0.04922437810944541 0.057724807162585434 0 0 0 0.010329287678685142 -0.028873680332633708 0.0066540473003762392 0 0.0066540473003762392 -0.014133386635349979 0 0 0 -0.010751766741995929 -0.016092617036740808 0.022908657004289124 0 0.022908657004289124 -0.00072266025058720373 0 0 0 -0.004203819321832114 -0.018228241207415286 -0.031132954141645075 0 -0.031132954141645075 0.022144627485283674 0 0 0 0.00097909656946693069 -0.080842689398000961 0.0042183579906495856 0 0.0042183579906495856 -0.0074382694279214179 0 0 0 -0.022070239706480591 -0.086190939341452735 -0.017953726038757389 0 -0.017953726038757389 -0.020139292848514994 0 0 0 -0.026582558047491937 -0.033628510148068003 0.0072034776934700277 0 0.0072034776934700277 -0.0074825347629932544 0 0 0 -0.010277761227765313 -0.039786192239751772 -0.039192550590987502 0 -0.039192550590987502 0.039615599811300806 0 0 0 -4.2648107112741585e-05 -0.088170783280786535 0.017200595200939583 0 0.017200595200939583 -0.0019508361820141928 0 0 0 -0.022530404865700238 -0.016329343723812506 -0.017942701300205366 0 -0.017942701300205366 0.049315275119631297 0 0 0 0.0082464828489545172 -0.052500749145574566 -0.035810323273392841 0 -0.035810323273392841 0.004906461259591044 0 0 0 -0.011898571971495908 -0.073411923789243827 -0.013354435966700065 0 -0.013354435966700065 0.063636903649961885 0 0 0 -0.0024437550348204717 -0.15775962752417777 -0.014622387429426989 0 -0.014622387429426989 -0.0041983792492921584 0 0 0 -0.040489501693367444 -0.11136218551390273 0.0023140087245994631 0 0.0023140087245994631 -0.0025402310571026598 0 0 0 -0.028475604142751361 -0.016257251031869615 0.010304418123617428 0 0.010304418123617428 0.0035408977717432955 0 0 0 -0.0031790883150315807 -0.038202348250445099 0.0045641290128337914 0 0.0045641290128337914 -0.012812408589392185 0 0 0 -0.012753689209959321 -0.060875061229116539 -0.02495343327914569 0 -0.02495343327914569 0.011238404875675068 0 0 0 -0.012409164088360347 -0.16120885680014141 -0.018199558327626285 0 -0.018199558327626285 -0.0018439410780267534 0 0 0 -0.040763199469542037 -0.11538174136091083 0.0056090130539405911 0 0.0056090130539405911 -0.0010007062119423427 0 0 0 -0.029095611893213288 -0.054870898705194106 0.0063071602559637346 0 0.0063071602559637346 0.065175427789117044 0 0 0 0.0025761322709807275 -0.033263467316124506 -0.031512155558866606 0 -0.031512155558866606 0.0035303083872966212 0 0 0 -0.0074332897322069158 -0.034672065327614465 0.048327771174753287 0 0.048327771174753287 0.0096149673720073991 0 0 0 -0.0062642744889020996 -0.10025739810828654 0.00039613578700262164 0 0.00039613578700262164 0.010023745943161397 0 0 0 -0.022558413041281259 -0.085719170404071274 -0.0068395220326034067 0 -0.0068395220326034067 0.013167191140423695 0 0 0 -0.018137994815911874 -0.042956265225827343 -0.015191379117961257 0 -0.015191379117961257 0.025178268572950191 0 0 0 -0.0044444991632192829 -0.046994522758071651 -0.015802213451655334 0 -0.015802213451655334 0.034814515260442859 0 0 0 -0.0030450018744072101 -0.060296626493501065 -0.0099292504547273952 0 -0.0099292504547273952 -0.025549737170490548 0 0 0 -0.021461590915997909 -0.058204489630958353 -0.0052531097449164278 0 -0.0052531097449164278 -0.022687144717688422 0 0 0 -0.020222908587161678 -0.064203925648860086 0.0014849121991448626 0 0.0014849121991448626 -0.015291671048384888 0 0 0 -0.019873899174311236 -0.062834456339955116 0.0044236126383235446 0 0.0044236126383235446 -0.014644224922695195 0 0 0 -0.019369670315662578 -0.033732972371585013 -0.0077090509983316069 0 -0.0077090509983316069 -0.00341937393073799 0 0 0 -0.0092880865755807784 -0.064181091824287148 -0.00177548765252304 0 -0.00177548765252304 0.069139929693254748 0 0 0 0.0012397094672419028 -0.025470005571565646 0.010450484443235181 0 0.010450484443235181 9.0602854941473909e-06 0 0 0 -0.0063652363215178642 -0.02948861101471878 0.051260508931286614 0 0.051260508931286614 0.016896846595911619 0 0 0 -0.0031479411047019568 -0.046416743081884149 -0.032821624985700293 0 -0.032821624985700293 6.7152370810674711e-06 0 0 0 -0.011602506961200687 -0.022365911558101415 0.061698011848369649 0 0.061698011848369649 0.010724257677267701 0 0 0 -0.0029104134702087059 -0.020088787637056772 -0.0072758650067890063 0 -0.0072758650067890063 0.0012443190711746016 0 0 0 -0.0047111171414705496 -0.012973126625943215 0.0036328395454371526 0 0.0036328395454371526 0.014008880652996381 0 0 0 0.00025893850676328434 -0.066730117222432495 0.068129496558024139 0 0.068129496558024139 0.0017919130371621961 0 0 0 -0.016234551046317658 -0.043198887474864556 0.069651788016431571 0 0.069651788016431571 0.0070773576934199944 0 0 0 -0.0090303824453613624 -0.12174125455497954 -0.0082233779061914539 0 -0.0082233779061914539 -0.015557582486310178 0 0 0 -0.034324709260322425 -0.096768596825099043 -0.0013214510531248252 0 -0.0013214510531248252 -0.012160266143070792 0 0 0 -0.027232215742042445 -0.03526349076585622 -0.039166952087571344 0 -0.039166952087571344 0.019591744896912511 0 0 0 -0.0039179364672359829 0.00076438948963952758 -0.0044441149108652078 0 -0.0044441149108652078 0.077343850707017436 0 0 0 0.019527060049164269 -0.0064938606327974158 6.8247776492280643e-05 0 6.8247776492280643e-05 0.14520388603256795 0 0 0 0.0346775063499426 -0.064803069789360818 0.0010814599173988616 0 0.0010814599173988616 0.043054951155986038 0 0 0 -0.0054370296583436967 -0.020433780075902852 0.015826146835965966 0 0.015826146835965966 0.007019490937173925 0 0 0 -0.0033535722846822283 -0.01235176433629781 -0.0021856397509524284 0 -0.0021856397509524284 -0.019057623572514393 0 0 0 -0.0078523469772030507 -0.02479890147088204 -0.0042171279923612082 0 -0.0042171279923612082 -0.023866696695802769 0 0 0 -0.012166399541671202 -0.038114218409970868 -0.014053542487600129 0 -0.014053542487600129 -0.0077658047560847931 0 0 0 -0.011470005791513915 -0.024866472944946733 0.018009567796107184 0 0.018009567796107184 -0.0055562050962859599 0 0 0 -0.0076056695103080829 -0.019157013715512705 -0.031438767691523761 0 -0.031438767691523761 0.033843449663445546 0 0 0 0.0036716089869829327 -0.0037384909227516361 0.0086869996422196116 0 0.0086869996422196116 0.022586413686177753 0 0 0 0.0047119806908566542 -0.0057305933109505491 -0.01265064225437329 0 -0.01265064225437329 0.063379133081308714 0 0 0 0.014412134942589527 -0.023738655192483415 0.037990423444586696 0 0.037990423444586696 0.02081428283761122 0 0 0 -0.00073109308871788237 -0.020850862604981313 -0.02367084700359845 0 -0.02367084700359845 -0.0064112278305794579 0 0 0 -0.0068155226088903453 -0.035188746946228616 0.0050082322330079008 0 0.0050082322330079008 -0.012225665121069797 0 0 0 -0.011853603016824608 -0.031373892779511706 0.0081678464160717026 0 0.0081678464160717026 -0.0080805131904374272 0 0 0 -0.0098636014924872884 -0.026484614274989937 0.043230768077332948 0 0.043230768077332948 0.030640141030574775 0 0 0 0.0010388816888959873 -0.026716528635331027 -0.024545922020000943 0 -0.024545922020000943 0.0018557125589730994 0 0 0 -0.0062152040190894819 -0.095424275101718983 -0.011997235049349773 0 -0.011997235049349773 -0.024455628646925055 0 0 0 -0.029969975937161001 -0.081833117953816856 0.0021631646350528267 0 0.0021631646350528267 -0.017706619297468102 0 0 0 -0.024884934312821239 -0.00040812343616369873 0.075587755795174516 0 0.075587755795174516 0.026864128140344334 0 0 0 0.0066140011760451589 -0.14154233340066227 -0.003790246145489771 0 -0.003790246145489771 -0.024214740612057681 0 0 0 -0.041439268503179992 -0.10803958563026987 -0.0048030329929797944 0 -0.0048030329929797944 -0.017953883306174447 0 0 0 -0.031498367234111084 -0.036455736588578036 0.015554671426650568 0 0.015554671426650568 -0.0064173612958393633 0 0 0 -0.010718274471104294 -0.017054388674815013 -0.021955226695747787 0 -0.021955226695747787 0.063990992424788118 0 0 0 0.011734150937493304 -0.059600349412367283 -0.0078070860340197501 0 -0.0078070860340197501 0.086869336864987656 0 0 0 0.0068172468631550673 -0.092090281932026119 -0.0019070988161194458 0 -0.0019070988161194458 0.083036501063468604 0 0 0 -0.0022634452171393649 -0.058698186635902982 -0.036768304160847198 0 -0.036768304160847198 0.011135161458420528 0 0 0 -0.011890756294370641 -0.029770976141221026 -0.026979278464520196 0 -0.026979278464520196 0.0041575647653429026 0 0 0 -0.0064033528439695342 -0.064697849450312761 0.078532210635311461 0 0.078532210635311461 0.020840168387497249 0 0 0 -0.010964420265703767 -0.1248220562929242 0.051207502466736332 0 0.051207502466736332 0.026324668645861582 0 0 0 -0.024624346911765738 -0.085180308114675862 -0.023622279406056906 0 -0.023622279406056906 0.011037561285057951 0 0 0 -0.01853568670740452 -0.0049550414549238142 -0.054427394069696461 0 -0.054427394069696461 0.041113143729707202 0 0 0 0.0090395255686958054 -0.018718752262244995 0.001139416147181993 0 0.001139416147181993 0.042840405261109771 0 0 0 0.0060304132497161628 -0.024676211211247523 -0.0075830706800956993 0 -0.0075830706800956993 0.081914378285809053 0 0 0 0.01430954176864041 -0.066306931990653045 -0.021523472205143446 0 -0.021523472205143446 0.041736475205518486 0 0 0 -0.0061426141962836397 -0.0601579500442532 -0.015321112904461257 0 -0.015321112904461257 0.040433831428728029 0 0 0 -0.0049310296538812998 -0.042207849295913022 0.021845076745857631 0 0.021845076745857631 0.099013399133285121 0 0 0 0.014201387459343032 -0.021128427114368853 -0.03005795301764938 0 -0.03005795301764938 0.056656203133464089 0 0 0 0.008881944004773823 -0.017186990099686383 0.035142085094622022 0 0.035142085094622022 0.069863794144746194 0 0 0 0.013169201011264509 -0.01912319038845256 -0.013996120059437844 0 -0.013996120059437844 -0.0054973075542164018 0 0 0 -0.0061551244856670184 -0.059950416779676226 0.01241425003521994 0 0.01241425003521994 0.059207118357036154 0 0 0 -0.0001858246056600163 -0.04284201726672815 -0.0065838631482708632 0 -0.0065838631482708632 0.01877760291365535 0 0 0 -0.0060161035882682623 -0.027751074109555879 -0.0067695186528356488 0 -0.0067695186528356488 -0.018441634503295279 0 0 0 -0.011548177153212852 -0.041636805267122955 0.019995550714962819 0 0.019995550714962819 0.03926492315811965 0 0 0 -0.00059297052725082369 -0.0399445421007628 -0.0025582181906316078 0 -0.0025582181906316078 -0.023816948745270766 0 0 0 -0.015940372711508392 -0.10652008171095517 -0.010157975833770158 0 -0.010157975833770158 0.0014210026013017352 0 0 0 -0.026274769777413387 -0.063987860740749261 -0.008990081463186075 0 -0.008990081463186075 -0.021675109155035205 0 0 0 -0.021415742473946113 -0.026786442744492107 0.011752220477497986 0 0.011752220477497986 -0.0017793513916728593 0 0 0 -0.0071414485340412434 -0.056412285794440561 0.0091571524581284536 0 0.0091571524581284536 0.083423521082795687 0 0 0 0.0067528088220887988 -0.17602806287920203 0.021277346303433527 0 0.021277346303433527 0.0017083676041842466 0 0 0 -0.04357992381875464 -0.038320744560469196 0.0041732011747310036 0 0.0041732011747310036 -0.014903955987266373 0 0 0 -0.013306175136933895 -0.028312868463615401 0.0015503397135825069 0 0.0015503397135825069 -0.0063064163628680225 0 0 0 -0.0086548212066208524 -0.04918618660843297 -0.021423236262546663 0 -0.021423236262546663 0.0044813832159416311 0 0 0 -0.011176200848122854 -0.056200686033344993 -0.026479125509594859 0 -0.026479125509594859 -5.2955763716999726e-05 0 0 0 -0.014063410449265346 -0.047915968424532648 -0.010515040506176115 0 -0.010515040506176115 -0.01979625992495334 0 0 0 -0.016928057087371492 -0.034183952109043132 0.0033584015138652399 0 0.0033584015138652399 -0.015931634029249114 0 0 0 -0.012528896534573064 -0.03266233893681024 -0.003124729236700749 0 -0.003124729236700749 -0.0035805860850067414 0 0 0 -0.0090607312554542435 -0.051584891245144787 -0.023866480242703381 0 -0.023866480242703381 0.014485524430771224 0 0 0 -0.0092748417035933839 -0.021426643303329274 0.00049814289903349351 0 0.00049814289903349351 0.024771780829117018 0 0 0 0.00083628438144683903 -0.11160917648368589 -0.033498754960436555 0 -0.033498754960436555 -0.0048581416061174165 0 0 0 -0.029116829522450829 -0.006621077718073437 0.021049558901050425 0 0.021049558901050425 0.1220303832698314 0 0 0 0.028852326387939303 -0.026653012444382868 -0.010296087447253299 0 -0.010296087447253299 -0.0039597520920338081 0 0 0 -0.0076531911341040926 -0.031941464551570806 0.0071335035674083697 0 0.0071335035674083697 -0.010295907367903919 0 0 0 -0.010559342979868686 -0.029004250469109483 0.0077207230152226795 0 0.0077207230152226795 -0.010182952642882354 0 0 0 -0.0097968007779979608 -0.028855409098538676 0.019814170445351831 0 0.019814170445351831 0.0038120792650975233 0 0 0 -0.0062608324583606212 -0.027177499622316637 -0.028775542979079805 0 -0.028775542979079805 0.040185978216514151 0 0 0 0.0032521196485495452 -0.031844024630259093 0.01301945900618192 0 0.01301945900618192 0.0099671404519781417 0 0 0 -0.0054692210445702362 -0.040422322547888259 0.010634348195338395 0 0.010634348195338395 0.008879035004118279 0 0 0 -0.0078858218859424994 -0.032422348857413935 0.0072124539956908134 0 0.0072124539956908134 -0.0086117073112140195 0 0 0 -0.010258514042156993 -0.097802846368855223 0.004740328799569378 0 0.004740328799569378 -0.0018928658747867366 0 0 0 -0.024923928060910466 -0.059975060315908886 -0.0059405386501491242 0 -0.0059405386501491242 0.019119401346947673 0 0 0 -0.010213914742240329 -0.041600017835657921 -0.010027661298168698 0 -0.010027661298168698 0.022605550933655405 0 0 0 -0.0047486167255006151 -0.10772446346533682 0.0051020694885484941 0 0.0051020694885484941 -0.0045095906977509412 0 0 0 -0.028058513540771941 0.044338686108501932 0.09967500319524436 0 0.09967500319524436 0.072283115565808409 0 0 0 0.029155450418577519 -0.025717600382250794 0.035885198211558056 0 0.035885198211558056 0.006413713214328709 0 0 0 -0.0048259717919809653 -0.022442229487947163 -0.031866758330613726 0 -0.031866758330613726 0.0045453547704656927 0 0 0 -0.0044742186793704786 -0.050732802017064781 0.00057112549561713372 0 0.00057112549561713372 0.009623365918987381 0 0 0 -0.010277359024519345 -0.036120902035102279 0.0032481161293534868 0 0.0032481161293534868 -0.014768800322806475 0 0 0 -0.012722425589477192 -0.0023860802619483368 -0.0019736403860341756 0 -0.0019736403860341756 0.026030112837729269 0 0 0 0.0059110081439452261 -0.037001415225915213 -0.012614178434864037 0 -0.012614178434864037 0.0033235191358891303 0 0 0 -0.0084194740225065345 -0.041004483921132484 -0.018620368053438863 0 -0.018620368053438863 -0.013777385300359934 0 0 0 -0.013695467305373077 -0.03915749056853484 0.0064663560534464464 0 0.0064663560534464464 -0.0015364205000864793 0 0 0 -0.010173477767155333 -0.089628609141895799 -0.022289991909874518 0 -0.022289991909874518 0.00049726017249329679 0 0 0 -0.022282837242350584 -0.072693511905480235 -0.027607375101792675 0 -0.027607375101792675 0.0061813802574579579 0 0 0 -0.016628032912005597 -0.035203344429859701 0.0012270428132996783 0 0.0012270428132996783 -0.011739385753660873 0 0 0 -0.011735682545880142 -0.10228949164440593 0.056629517589716016 0 0.056629517589716016 0.009671520969857017 0 0 0 -0.023154492668637117 -0.13697442515087288 0.046294479494639884 0 0.046294479494639884 -0.0008457258158895975 0 0 0 -0.034455037741690564 -0.011460262732070459 0.0078952532465197955 0 0.0078952532465197955 0.03500411752163779 0 0 0 0.005885963697391805 -0.013558947112638386 -0.013998364798449597 0 -0.013998364798449597 0.067400932249485956 0 0 0 0.01346049628421192 -0.018145049260919408 -0.019067190478151058 0 -0.019067190478151058 0.011741664777587868 0 0 0 -0.0016008461208328467 -0.029972168228162455 -0.001186360100524142 0 -0.001186360100524142 -0.013720403221730515 0 0 0 -0.010923142862473256 0.014669693443865345 0.047599842662184769 0 0.047599842662184769 0.12411808765355814 0 0 0 0.034696945274355878 -0.041970196181341318 -0.0064813307643159269 0 -0.0064813307643159269 -0.016178999790039252 0 0 0 -0.014537298992845133 -0.056290110683492857 -0.011226321058202371 0 -0.011226321058202371 0.039907878097421662 0 0 0 -0.0040955581465178317 0.033680298807152731 0.033484372511713767 0 0.033484372511713767 0.026330254670626108 0 0 0 0.015002638369444599 -0.05087775681857172 2.5856444078972696e-05 0 2.5856444078972696e-05 0.0077655089550383687 0 0 0 -0.010778061965883337 -0.023123129875457504 0.04063226635978312 0 0.04063226635978312 0.012380214515957721 0 0 0 -0.0026857288398749457 -0.022202120816724236 -0.026559609621076508 0 -0.026559609621076508 0.0031833466389907805 0 0 0 -0.0047546935444334748 -0.049467944911804992 0.0016090328861884792 0 0.0016090328861884792 -0.0052168256486346421 0 0 0 -0.013671192640109903 -0.078865755225720272 -0.019070177828876825 0 -0.019070177828876825 0.06532911628603727 0 0 0 -0.0033841597349207608 -0.023339198229899605 0.032067167417940912 0 0.032067167417940912 0.073805210498426366 0 0 0 0.01261650306713169 -0.021235580559799849 -0.01328131778128383 0 -0.01328131778128383 0.0022615480354399864 0 0 0 -0.0047435081310897576 -0.14962601839779005 0.002189835933570299 0 0.002189835933570299 0.0013047328977900396 0 0 0 -0.037080321374999961 -0.26082362419321836 -0.0084346821955434258 0 -0.0084346821955434258 0.0022176939793663308 0 0 0 -0.064651482553462966 -0.037470809702626395 0.026205532413038107 0 0.026205532413038107 0.11552262433489746 0 0 0 0.019512953658067822 -0.083264111554880227 0.0069757053901469759 0 0.0069757053901469759 -0.00033167620683416388 0 0 0 -0.020898946940428591 0.015231993007791621 -0.0011857541824797369 0 -0.0011857541824797369 0.066890026292722005 0 0 0 0.020530504825128325 0.0078723843868614418 0.0019053052577327478 0 0.0019053052577327478 0.086657955696629152 0 0 0 0.023632585020872732 0.0057269462003841087 -0.0042619117776275806 0 -0.0042619117776275806 0.1636153684801398 0 0 0 0.042335578670131047 0.020560989136062136 -0.0020765912797209296 0 -0.0020765912797209296 0.13991081637537639 0 0 0 0.040117951377859673 -0.017831583249099878 0.0085929830404354868 0 0.0085929830404354868 0.0061340156451081262 0 0 0 -0.0029243919009979552 -0.018878405455576674 -0.015917565231947484 0 -0.015917565231947484 0.030757200574796473 0 0 0 0.0029696987798048524 -0.022378777562339913 0.0047639359630502476 0 0.0047639359630502476 0.11756396946496805 0 0 0 0.023796297975657049 -0.019638607735308011 -0.011933034371404527 0 -0.011933034371404527 0.057661800304606992 0 0 0 0.0095057981423247728 -0.081803729368094824 0.0054114318845320114 0 0.0054114318845320114 0.056719866830281129 0 0 0 -0.0062709656344534306 -0.0032072887166663122 0.028262755683122087 0 0.028262755683122087 0.057606313216435723 0 0 0 0.013599756124941909 -0.010195684350685852 0.0090602413653955716 0 0.0090602413653955716 -0.0010105437062364331 0 0 0 -0.0028015570142305712 -0.0078873238219374642 -0.0077644890705241831 0 -0.0077644890705241831 -0.0021985732611593534 0 0 0 -0.0025214742707744264 -0.0062963696245750267 -0.024510098942135849 0 -0.024510098942135849 0.025407114302947953 0 0 0 0.004777686169592954 -0.042537471394944272 0.005338966813179101 0 0.005338966813179101 -0.0024094279329183472 0 0 0 -0.011236724831965658 -0.018464378581343061 0.027241225823759319 0 0.027241225823759319 0.07070188426389401 0 0 0 0.013059376420637842 -0.0044673019796440672 -0.00676090112272143 0 -0.00676090112272143 -0.0018122275110253883 0 0 0 -0.0015698823726674194 -0.064600377362913047 -0.0080198311616392053 0 -0.0080198311616392053 0.081880191753252035 0 0 0 0.0043199535975847417 -0.0052115575694484662 0.0080540420337320562 0 0.0080540420337320562 -0.0019698731608306375 0 0 0 -0.0017953576825693318 -0.016697579568841769 -0.024688304514233872 0 -0.024688304514233872 0.036521146535579696 0 0 0 0.0049558917416843151 -0.013444192525870924 -0.029869889247961912 0 -0.029869889247961912 0.023749342024016462 0 0 0 0.0025762873745364678 -0.054592685612492114 -0.025588564833813596 0 -0.025588564833813596 0.0075400860278472814 0 0 0 -0.011763149896161201 -0.054081321596469889 -0.024495442629988207 0 -0.024495442629988207 0.0084177003737574974 0 0 0 -0.011415905305678126 -0.042333190449994215 -0.010253401764897505 0 -0.010253401764897505 -0.010262891811342385 0 0 0 -0.013149020565334161 -0.029108160632887015 0.084473740347063231 0 0.084473740347063231 0.022071538214892272 0 0 0 -0.0017591556044985746 -0.084400001145853026 -0.0099972614861888465 0 -0.0099972614861888465 -0.0004673435008756277 0 0 0 -0.021216836161682046 0.0070233769797360124 -0.019591725311773764 0 -0.019591725311773764 0.045594522777038127 0 0 0 0.013154474939193542 -0.033008508056558861 -0.0090425905258769701 0 -0.0090425905258769701 0.029713933556806127 0 0 0 -0.00082364362493822507 -0.022342169933415992 0.022574430876041919 0 0.022574430876041919 0.022590760967478002 0 0 0 6.214775851549198e-05 -0.033195698132305052 -0.011329703805569608 0 -0.011329703805569608 -0.013260814779612828 0 0 0 -0.01161412822797947 -0.035256493675493883 -0.012150642402727285 0 -0.012150642402727285 -0.013302296298447036 0 0 0 -0.012139697493485202 -0.28513727215107476 0.0070555838058644384 0 0.0070555838058644384 0.0082940259550434714 0 0 0 -0.069210811549007878 -0.15427102873899212 -0.0033890001917543421 0 -0.0033890001917543421 0.0036785756903590094 0 0 0 -0.037648113262158334 -0.047091945287430402 -0.0051586643210093158 0 -0.0051586643210093158 -0.015699407807954747 0 0 0 -0.015697838273846288 -0.053545430174357006 0.0037818981280103485 0 0.0037818981280103485 -0.017848040514521026 0 0 0 -0.017848367672219503 -0.013900934327837802 0.0077362302223297486 0 0.0077362302223297486 0.0093422388978574855 0 0 0 -0.0011396738574950965 -0.033083645558754413 0.019371483039085598 0 0.019371483039085598 0.026327495562033544 0 0 0 -0.0016890374991802258 -0.026083317613938665 0.014124971068771079 0 0.014124971068771079 0.006389116783504456 0 0 0 -0.004923550207608561 -0.14295222942507577 -0.015387302353278655 0 -0.015387302353278655 -0.012975733798208544 0 0 0 -0.038981990805821098 -0.10763621518890706 0.0019636276491692348 0 0.0019636276491692348 -0.0073854818979458142 0 0 0 -0.028755424271713206 0.048126134572534562 0.040623670496454822 0 0.040623670496454822 0.033829760664680464 0 0 0 0.020488973809303923 -0.1205774808399914 -0.014317815672783597 0 -0.014317815672783597 -0.0079466937086294532 0 0 0 -0.032131043637155195 -0.09662408428821806 0.0017781632301329103 0 0.0017781632301329103 -0.0050974994409697938 0 0 0 -0.02543039593229696 -0.038985766780424036 -0.0054040512028810245 0 -0.0054040512028810245 -0.0011126166275412519 0 0 0 -0.01002459585199128 0.034974363755135074 0.1180973783075876 0 0.1180973783075876 0.075137009195130666 0 0 0 0.027527843237566518 -0.018112023715379205 0.011343252108799474 0 0.011343252108799474 -0.0019644908735303029 0 0 0 -0.0050191286472273666 -0.034303957106460975 -0.0085680386604476966 0 -0.0085680386604476966 0.021644350395267797 0 0 0 -0.0031649016777983152 -0.077957778603732097 -0.0084614478537932431 0 -0.0084614478537932431 -0.025981027296218543 0 0 0 -0.025984701474987656 -0.072131340027747834 0.0018429844964122236 0 0.0018429844964122236 -0.02403895028575358 0 0 0 -0.024042572578375356 -0.13649022683670661 0.0039183190794233108 0 0.0039183190794233108 -0.00062520780151201216 0 0 0 -0.034278858659554642 -0.21742665703336694 -0.011311263016834341 0 -0.011311263016834341 -0.0012575571200661717 0 0 0 -0.054671053538358334 -0.081766950896570351 -0.014744756532723446 0 -0.014744756532723446 0.029322505501098939 0 0 0 -0.01311111134886786 0.0070969674743009969 -0.019247540627479076 0 -0.019247540627479076 0.030339578137865253 0 0 0 0.0093591364030415347 -0.074156101085416981 -0.014236581273063556 0 -0.014236581273063556 0.061551130663435441 0 0 0 -0.003151242605495392 -0.040805128601359431 0.014441885114638054 0 0.014441885114638054 0.036401995862951231 0 0 0 -0.0011007831846020603 -0.053147428899448478 0.0081161617160069831 0 0.0081161617160069831 0.041569102187556967 0 0 0 -0.0028945816779729094 -0.0054970848574651034 0.023061133250726687 0 0.023061133250726687 0.038280182434890953 0 0 0 0.0081957743943564618 0.0077531411546875768 0.018677403177224813 0 0.018677403177224813 0.021983547063811282 0 0 0 0.0074341720546247138 -0.021679394155110221 -0.012433848898717847 0 -0.012433848898717847 -0.0066476399370318795 0 0 0 -0.0070817585230354418 -0.068098803575624201 -0.019865725874585793 0 -0.019865725874585793 0.030975466897198975 0 0 0 -0.0092808341696063411 -0.080617231291172237 -0.036318832477018059 0 -0.036318832477018059 0.074595897422764318 0 0 0 -0.0015053334671019797 -0.02319921905711015 -0.061288056903725491 0 -0.061288056903725491 0.11966312881318783 0 0 0 0.024115977439019436 -0.13034711959047429 0.0034351825527562246 0 0.0034351825527562246 -0.00087722255529593118 0 0 0 -0.03280608553644257 -0.19766601975759662 -0.0096546881701443116 0 -0.0096546881701443116 -0.0016423877141838461 0 0 0 -0.049827101867945089 -0.0013317345213552452 -0.0020859958392439593 0 -0.0020859958392439593 -0.0063456370975655211 0 0 0 -0.0019193429047301498 -0.025385131963400476 -0.029088351258375875 0 -0.029088351258375875 0.092535168273458868 0 0 0 0.016787509077514584 -0.028619363436163656 0.011969624659160535 0 0.011969624659160535 -0.0029273260079399621 0 0 0 -0.0078866723610259096 -0.11562130361922254 -0.013858593368570258 0 -0.013858593368570258 -0.017396154691907743 0 0 0 -0.033254364577782573 -0.093141189413677133 0.0017364934200020795 0 0.0017364934200020795 -0.011328524934053411 0 0 0 -0.026117428586932633 -0.051658099226864762 0.0010135197819697069 0 0.0010135197819697069 -0.0062682713967904076 0 0 0 -0.014481592655913797 -0.074244125563072513 -0.010012878446743992 0 -0.010012878446743992 0.066785242274880724 0 0 0 -0.0018647208220479469 -0.023944602850958424 -0.012388490130516183 0 -0.012388490130516183 0.040101616166949849 0 0 0 0.0040392533289978216 -0.053768634589914086 0.0031128119103425696 0 0.0031128119103425696 -0.0036848631215059039 0 0 0 -0.014363374427855 -0.065523820650716491 0.016849703127186366 0 0.016849703127186366 0.00065992773624845569 0 0 0 -0.01621597322861712 -0.021609565036424416 -0.021800697893583409 0 -0.021800697893583409 0.054412411932745375 0 0 0 0.0082007117240802119 -0.014891898905822487 -0.020061766906985024 0 -0.020061766906985024 0.046379783284255183 0 0 0 0.0078719710946081878 -0.052270199087183999 -0.03112024505648029 0 -0.03112024505648029 0.043733458773917461 0 0 0 -0.0021341850783166555 -0.052627898450309268 -0.018052581744491591 0 -0.018052581744491591 0.035619908220102858 0 0 0 -0.0042519975575516511 -0.052156030210414414 -0.0046305784904327445 0 -0.0046305784904327445 0.028790641958626323 0 0 0 -0.0058413470629470297 -0.071462411955723684 -0.010740223964042891 0 -0.010740223964042891 0.063007107969660359 0 0 0 -0.0021138259965158279 -0.00051340204583660842 0.023046228574173711 0 0.023046228574173711 0.14031042257580406 0 0 0 0.034949255132491919 0.00024206924564218468 0.00052218414298366156 0 0.00052218414298366156 0.0010949133052808868 0 0 0 0.00033424563773043481 -0.0037297946205687715 -0.019422266523479337 0 -0.019422266523479337 0.074161040991122418 0 0 0 0.017607811592638356 0.00055690097528648952 -0.0010979185753967613 0 -0.0010979185753967613 0.0014288385647454049 0 0 0 0.00049643488500772381 -0.052963227754245917 0.00024162908521856413 0 0.00024162908521856413 0.03111925120277563 0 0 0 -0.0054609941378675857 -0.054848427426464244 -0.0031512184060978592 0 -0.0031512184060978592 0.020105293674610752 0 0 0 -0.0086857834379633833 -0.051102878403909202 -0.015356083992031311 0 -0.015356083992031311 0.02868927097587376 0 0 0 -0.0056034018570088606 -0.17391616939265514 -0.015397746749385197 0 -0.015397746749385197 0.0026842215316250639 0 0 0 -0.042807986965257505 -0.19973740813728263 -0.024174501967265671 0 -0.024174501967265671 0.0034943641919371049 0 0 0 -0.049060760986336355 -0.047946975463899366 -0.02491851258344404 0 -0.02491851258344404 0.001086055510158862 0 0 0 -0.011715229988435147 -0.062370698070190154 -0.0041760378785073091 0 -0.0041760378785073091 0.0080209672948380606 0 0 0 -0.013587432693838046 -0.028033162967675912 -0.042147611225853032 0 -0.042147611225853032 0.066450954417696717 0 0 0 0.0096044478625052221 -0.09043900374781122 0.0028137006835229732 0 0.0028137006835229732 -0.0098248983347343239 0 0 0 -0.025065975520636385 -0.078388838176339418 0.0022712671564363469 0 0.0022712671564363469 -0.012787282735195075 0 0 0 -0.022794030227883628 -0.085537932957257146 -0.013160563203854466 0 -0.013160563203854466 -0.020513005091189314 0 0 0 -0.026512734512111606 -0.10889339877572665 -0.015808289415384119 0 -0.015808289415384119 -0.019050149366828882 0 0 0 -0.031985887035638878 -0.069269537828336336 -0.026922050246244444 0 -0.026922050246244444 0.00049728471740850821 0 0 0 -0.017193063277731846 -0.054881144131751269 -0.027797194290560094 0 -0.027797194290560094 0.0020528084869253505 0 0 0 -0.013207083911206507 -0.050155644874088072 -0.0042793508557105765 0 -0.0042793508557105765 -0.02305689404599023 0 0 0 -0.018303134730019571 -0.048267654087016269 -0.0058859923742273874 0 -0.0058859923742273874 -0.022602493723091026 0 0 0 -0.017717536952526824 -0.053706249085097912 0.0048612366680173876 0 0.0048612366680173876 -0.01359913844117276 0 0 0 -0.016826346881567669 -0.057573501648150692 0.0022965852478908709 0 0.0022965852478908709 -0.017964114600123343 0 0 0 -0.018884404062068511 -0.02992223387077142 0.044731056950392922 0 0.044731056950392922 0.017406729090366113 0 0 0 -0.0031288761951013822 -0.030240996886690685 -0.029726030257513303 0 -0.029726030257513303 -0.0021158696100469498 0 0 0 -0.00808921662418427 -0.071750795803473405 0.00093019282501138585 0 0.00093019282501138585 -0.010257982096434158 0 0 0 -0.020502194474976899 -0.063283524587671586 -0.010221267292263886 0 -0.010221267292263886 -0.020390307781357885 0 0 0 -0.020918458092257362 -0.050037391357208284 -0.0090242217426001053 0 -0.0090242217426001053 0.014449325385953948 0 0 0 -0.0088970164928135684 -0.082757456841424618 0.0022459044910182104 0 0.0022459044910182104 -0.007495938989273726 0 0 0 -0.022563348957674569 -0.090670172580403011 -0.015092444223721456 0 -0.015092444223721456 -0.013384375470907811 0 0 0 -0.026013637012827714 -0.10373637428347625 -0.017494585753270689 0 -0.017494585753270689 0.11587348128694125 0 0 0 0.0030342767508663021 -0.055999614507557374 -0.0057622304217043105 0 -0.0057622304217043105 0.015895183038816749 0 0 0 -0.010026107867185163 -0.095954339786380377 -0.007379217629277947 0 -0.007379217629277947 -0.031997062215082528 0 0 0 -0.031987850500365726 -0.081720060321179483 -0.00025346947377151294 0 -0.00025346947377151294 -0.027246865774896437 0 0 0 -0.027241731524018979 0.013148655198563342 0.014936304780133027 0 0.014936304780133027 0.042255021118260516 0 0 0 0.013850919079205992 -0.007945180610574476 -0.002075369951860917 0 -0.002075369951860917 -0.022347107259764964 0 0 0 -0.0075730719675848324 -0.072546770515988429 -0.00064794518211901131 0 -0.00064794518211901131 0.011140538542288775 0 0 0 -0.015351557993424879 0.00036012893009113034 -0.032617521444433417 0 -0.032617521444433417 0.023533307891302924 0 0 0 0.0059733592053484164 -0.053968653093604137 0.0021016769359652921 0 0.0021016769359652921 0.031392635039101849 0 0 0 -0.0056440045136255815 -0.061712675156453643 -0.012560342437067041 0 -0.012560342437067041 0.034100178757815749 0 0 0 -0.0069031240996594856 -0.16770249273204846 -0.0032626130452395527 0 -0.0032626130452395527 -0.013259897222416363 0 0 0 -0.045240597488616204 -0.12378993800551144 -0.0047853614853803073 0 -0.0047853614853803073 -0.010369973336324015 0 0 0 -0.033539977835458867 -0.020429649016437165 -0.022393850020678591 0 -0.022393850020678591 0.042047611059961298 0 0 0 0.0054044905108810437 -0.047494377990657907 0.0079807070093998941 0 0.0079807070093998941 0.020533606854719923 0 0 0 -0.0067401927839844996 -0.05488944875768053 -0.0071788666185035599 0 -0.0071788666185035599 0.0099963796268065352 0 0 0 -0.011223267282718516 -0.10166415680938248 -0.00095258291122014838 0 -0.00095258291122014838 0.0064935993864946306 0 0 0 -0.023792639355721998 -0.098724817643074725 0.019787875658146881 0 0.019787875658146881 0.00081635019975445644 0 0 0 -0.024477116860830095 -0.059133391637833516 -0.0063625852351806567 0 -0.0063625852351806567 0.030807976454578279 0 0 0 -0.0070813537958138439 -0.0574952483965986 -0.022515300097887839 0 -0.022515300097887839 0.014852477752466342 0 0 0 -0.010660692661033047 -0.058088077655115658 -0.0028011477010167762 0 -0.0028011477010167762 0.011620234551506708 0 0 0 -0.011616960775902255 -0.045362251823259356 0.0070452373813412574 0 0.0070452373813412574 0.02594095351562721 0 0 0 -0.0048553245769080398 -0.060883266044074166 -0.025302212665420848 0 -0.025302212665420848 0.017062804211972038 0 0 0 -0.010955115458025563 0.04600512639790226 0.019512011406664975 0 0.019512011406664975 0.10649671757670798 0 0 0 0.038125460993652577 -0.06581888387772554 0.0024112532466934334 0 0.0024112532466934334 0.0047685491650755196 0 0 0 -0.015262583678162481 -0.053308803733252752 0.013643108392280841 0 0.013643108392280841 -0.0031049456920522189 0 0 0 -0.014103437356326243 -0.021796828712293492 -0.018007443985836979 0 -0.018007443985836979 0.060029161909100903 0 0 0 0.009558083299201825 -0.0085633837784566125 -0.016962279169830174 0 -0.016962279169830174 0.042334202629775275 0 0 0 0.0084427047128295407 -0.1353828535631775 -0.024726623366291417 0 -0.024726623366291417 0.036572005443435071 0 0 0 -0.024702712029935511 -0.0049138646248965967 -0.017701109065894456 0 -0.017701109065894456 -0.015453639508533831 0 0 0 -0.0050918760333576174 -0.12950889826840248 0.005857431147829939 0 0.005857431147829939 0.0022445433551837035 0 0 0 -0.031816088728304687 -0.2152120183725319 -0.022048366342490994 0 -0.022048366342490994 0.0064587308958648088 0 0 0 -0.052188321869166776 -0.12479232694474385 -0.00069328002305646397 0 -0.00069328002305646397 0.00065349026437404312 0 0 0 -0.031034709170092482 -0.21144654753183181 -0.0039140222947582071 0 -0.0039140222947582071 0.0031197935230478091 0 0 0 -0.052081688502195883 -0.10710046740365602 -0.0046216260783040319 0 -0.0046216260783040319 -0.014808907603741442 0 0 0 -0.030477343751849378 -0.14100420590105339 -0.0026038043053101213 0 -0.0026038043053101213 -0.018181208554525177 0 0 0 -0.039796353613894643 -0.064033653864400117 -0.016708283562353057 0 -0.016708283562353057 0.046026827905940051 0 0 0 -0.0045017064896149955 -0.059124042392799794 -0.026281334081107957 0 -0.026281334081107957 0.058369368631096596 0 0 0 -0.00018866844042578906 -0.018345573084571964 -0.0046474443288162526 0 -0.0046474443288162526 0.065672301124134025 0 0 0 0.011831682009890487 -0.01315045213147345 -0.00066523709375326812 0 -0.00066523709375326812 0.12819525524925757 0 0 0 0.028761200779445967 -0.027828357925926264 0.0061786951050755989 0 0.0061786951050755989 0.041367663764856899 0 0 0 0.0033848264597326622 -0.020715517444041431 0.0021867699206835622 0 0.0021867699206835622 0.11097719582585608 0 0 0 0.022565419595453662 -0.031193314096856661 -0.010791702271261361 0 -0.010791702271261361 0.056484132909803253 0 0 0 0.0063227047032366479 -0.059632019656493077 -0.0025604081561297273 0 -0.0025604081561297273 0.012505087874833195 0 0 0 -0.011781732945415003 -0.041475088705663687 -0.026488688509630376 0 -0.026488688509630376 0.048737724726703513 0 0 0 0.0018156590052599564 -0.061327450810894857 -0.028164983356901291 0 -0.028164983356901291 0.044077856257713655 0 0 0 -0.0043123986382952728 -0.058255720256535304 -0.0026152379581985026 0 -0.0026152379581985026 0.056686290147916527 0 0 0 -0.00039235752715470126 -0.13329722021363666 0.019360861184651738 0 0.019360861184651738 -0.0021908098469918258 0 0 0 -0.033872007515156843 -0.071593533948737492 -0.0099886498296459583 0 -0.0099886498296459583 0.058357933093136416 0 0 0 -0.0033089002139002066 -0.0017165788117060043 -0.01356430947085048 0 -0.01356430947085048 0.17082215735693784 0 0 0 0.042276394636307946 0.052144912644836117 -0.019110502362134733 0 -0.019110502362134733 0.092007499747898458 0 0 0 0.036038103098183671 0.0053881935840786599 -0.017330372139171102 0 -0.017330372139171102 0.035727489156197167 0 0 0 0.010278920685069026 -0.23508394078624503 -0.016760638916346493 0 -0.016760638916346493 0.0054394233780181711 0 0 0 -0.057411129352056639 -0.1363871267233461 0.0054431292013744081 0 0.0054431292013744081 0.0015856053719176325 0 0 0 -0.033700380337857078 -0.073633715351285461 -0.0093328257745522777 0 -0.0093328257745522777 0.063125044935602032 0 0 0 -0.0026271676039208713 -0.085232632469617542 0.045368651645633751 0 0.045368651645633751 -0.0069370346785824211 0 0 0 -0.023042416787049769 -0.059547468622983546 0.042816884609714334 0 0.042816884609714334 0.0016246866036278007 0 0 0 -0.014480695504838659 -0.032779376935808568 -0.034136136685330887 0 -0.034136136685330887 0.022254621282839171 0 0 0 -0.0026311889132424326 -0.024542511956736089 -0.031399991850188602 0 -0.031399991850188602 0.025000242942530945 0 0 0 0.00011443274644871364 -0.029613231971414189 -0.02003927063399491 0 -0.02003927063399491 0.067428821105918635 0 0 0 0.0094538972836262225 -0.02116017106556134 0.010140821061784515 0 0.010140821061784515 0.00067145758709408199 0 0 0 -0.0051221783696164813 -0.070285261905182264 0.002467394693295143 0 0.002467394693295143 -0.010856611487544972 0 0 0 -0.020285468348181811 -0.068828768727287312 -0.0080824381512482491 0 -0.0080824381512482491 -0.020053952105526469 0 0 0 -0.022220680208203447 -0.035874534913628291 -0.038038028706648852 0 -0.038038028706648852 0.011099548426393463 0 0 0 -0.0061937466218085421 -0.036394626194638402 -0.037138475217632472 0 -0.037138475217632472 0.01101498468563733 0 0 0 -0.006344910377250379 -0.039433525545741602 -0.036171144414818723 0 -0.036171144414818723 0.0078415808701893797 0 0 0 -0.0078979861688881076 -0.041450112061724775 -0.039652881643761573 0 -0.039652881643761573 0.0078867803217801402 0 0 0 -0.0083908329349862143 -0.05477337611564817 0.056094394744675924 0 0.056094394744675924 -0.0025308711315547017 0 0 0 -0.0143260618118011 -0.043223456397550389 0.051826105770873321 0 0.051826105770873321 -1.3199376546734962e-05 0 0 0 -0.010809163943524335 -0.075857793296006851 0.003713678326405788 0 0.003713678326405788 -0.019809702880930063 0 0 0 -0.023916874044234229 -0.087749321273334208 -0.013692490835054026 0 -0.013692490835054026 -0.026429217281980086 0 0 0 -0.02854463463882858 -0.11334524206648441 -0.015081364734418928 0 -0.015081364734418928 0.00961008006920816 0 0 0 -0.02593379049931907 -0.19204879979256545 0.031804317673868793 0 0.031804317673868793 0.014555177149184528 0 0 0 -0.044373405660845133 -0.10003393129396013 0.0082944892515762203 0 0.0082944892515762203 0.0020955128378356003 0 0 0 -0.024484604614031152 -0.043884202793237584 0.0070808405380942867 0 0.0070808405380942867 0.0098977085957496578 0 0 0 -0.0084966235493719802 -0.0067056142680643194 -0.013175341452788147 0 -0.013175341452788147 -0.0015923546305598446 0 0 0 -0.0020744922246561104 -0.15326617261903652 -0.023903859939558281 0 -0.023903859939558281 0.0018020153383283 0 0 0 -0.037866039320177014 -0.19442791386544306 -0.019769493696583811 0 -0.019769493696583811 -0.0034389493834544038 0 0 0 -0.049466715812224414 -0.03305532450089399 0.00066321801327084854 0 0.00066321801327084854 -0.01953936102703183 0 0 0 -0.013148671381981456 -0.047271709304654866 0.0092219661814231801 0 0.0092219661814231801 0.079292109432159086 0 0 0 0.0080051000318760446 -0.13518398729223785 -0.0027051430520059483 0 -0.0027051430520059483 0.00042205991421268019 0 0 0 -0.033690481844506293 -0.23981151479719526 0.0040021599592474644 0 0.0040021599592474644 0.00035503099583171494 0 0 0 -0.059864120950340813 -0.081876716787679826 -0.0077083672436490946 0 -0.0077083672436490946 0.010485265825035311 0 0 0 -0.017847862740661136 -0.11993957472144115 -0.020938815115942182 0 -0.020938815115942182 -0.013772181617620657 0 0 0 -0.033427939084765469 -0.092366461649387444 -0.020408024956882424 0 -0.020408024956882424 -0.0092968988978524691 0 0 0 -0.025415840136810003 -0.0093395541127375692 0.10042057366901136 0 0.10042057366901136 0.1960398872978657 0 0 0 0.046675083296282005 -0.1828114883310481 -0.0088950439397875308 0 -0.0088950439397875308 0.00015101644814176363 0 0 0 -0.045665117970726588 -0.1214461466531136 0.0032257676760493598 0 0.0032257676760493598 0.00050210170580908264 0 0 0 -0.030236011236826101 -0.036237284229438838 -0.014394621647801739 0 -0.014394621647801739 -0.013892818195030188 0 0 0 -0.012532525606117284 -0.040173627298127346 -0.015189717886151324 0 -0.015189717886151324 -0.01145745430219669 0 0 0 -0.012907770400081064 -0.050757570280303366 0.0061255518087752567 0 0.0061255518087752567 0.044845966871243995 0 0 0 -0.0014779008522648315 -0.046145697459335007 -0.01145010314511854 0 -0.01145010314511854 0.0057402132382439186 0 0 0 -0.01010137105527277 -0.031399371512465309 0.015741229363524241 0 0.015741229363524241 0.0078422506050719251 0 0 0 -0.0058892802268483511 -0.017281128678923396 0.030070962590581618 0 0.030070962590581618 0.18186910146169155 0 0 0 0.041146993195692261 -0.098777102962640015 0.0068069167807079389 0 0.0068069167807079389 0.0038340512597161286 0 0 0 -0.023735762925731024 -0.055261143694011139 -0.0041675305267483247 0 -0.0041675305267483247 0.0080778203051044273 0 0 0 -0.011795830847226706 0.047072912895647079 0.017979085817299328 0 0.017979085817299328 0.070717983099532589 0 0 0 0.029447723998794917 -0.079362858446344081 -0.012085914330685399 0 -0.012085914330685399 -0.0032764345802689179 0 0 0 -0.020659823256653304 -0.28717456419117532 -0.00065739078199561485 0 -0.00065739078199561485 -0.00018274574224430573 0 0 0 -0.07183932748335492 -0.15749062039142286 -0.0010037007647951612 0 -0.0010037007647951612 -0.0003691138869812427 0 0 0 -0.039464933569600957 -0.071152250513490445 -0.004286182485476811 0 -0.004286182485476811 0.07254664336885909 0 0 0 0.00034859821384215783 -0.12083312399341412 -0.016767835394533415 0 -0.016767835394533415 -0.0075917309068262023 0 0 0 -0.03210621372506009 -0.14250152275757913 -0.023767034083278786 0 -0.023767034083278786 -0.0040863110827553117 0 0 0 -0.03664695846008359 0.015008082663835839 0.027906014472987212 0 0.027906014472987212 0.042824350556636526 0 0 0 0.014458108305118095 -0.053722517399253267 -0.012717358067302467 0 -0.012717358067302467 -0.00056641362019771435 0 0 0 -0.013572232754862856 -0.049221671909917442 -0.019227269706972194 0 -0.019227269706972194 0.014938453729647527 0 0 0 -0.0085708045450674786 -0.019208569247494811 0.021174353612210338 0 0.021174353612210338 0.1296734646184543 0 0 0 0.027616223842739984 -0.017876963543868696 -0.006948089898478481 0 -0.006948089898478481 0.0014418648414746826 0 0 0 -0.0041087746755985588 -0.070810896621222877 -0.030070553360537267 0 -0.030070553360537267 0.043638854875106659 0 0 0 -0.0067930104365290234 -0.042336371271824796 -0.014701634861925703 0 -0.014701634861925703 0.052850955572960767 0 0 0 0.0026286460752839858 -0.060181964597825426 -0.0060655030183004444 0 -0.0060655030183004444 0.018822757069773599 0 0 0 -0.010339801882013 -0.04601832888190649 0.012226712121313987 0 0.012226712121313987 -0.0014239829730815501 0 0 0 -0.011860577963747287 -0.019360728107907232 -0.021516669544751288 0 -0.021516669544751288 0.067589986197386764 0 0 0 0.0120573145223698 -0.065201205341573559 0.0017817325779269574 0 0.0017817325779269574 -0.0030512396032017497 0 0 0 -0.01706311123619382 -0.0043369542487579488 -0.00091298381126744821 0 -0.00091298381126744821 0.061717975227633282 0 0 0 0.014345255244718871 -0.11366847228274235 0.0051175362730505412 0 0.0051175362730505412 0.00053414383189970271 0 0 0 -0.028283582112710648 -0.088287004492209775 -0.022756354833617192 0 -0.022756354833617192 0.030804563728180856 0 0 0 -0.014370610191007216 -0.097352557846716439 0.0059638792409343749 0 0.0059638792409343749 -0.0036224334965319627 0 0 0 -0.025243747835812097 -0.083286606512155359 -0.011823648002989517 0 -0.011823648002989517 0.0016839104493202584 0 0 0 -0.020400674015708775 -0.12280754757990649 0.0041848965955736533 0 0.0041848965955736533 -0.00076510818376623879 0 0 0 -0.030893163940918109 -0.1108956518875422 0.0057891127063920411 0 0.0057891127063920411 0.0001708072028736296 0 0 0 -0.027681211171167161 -0.092583190600277476 0.058058648298571658 0 0.058058648298571658 -0.0013556560805021434 0 0 0 -0.023484711670194669 -0.069791617549970056 -0.006408150698618339 0 -0.006408150698618339 -0.02391644971565415 0 0 0 -0.023427016816406056 -0.077198298860685771 -0.014051010943335978 0 -0.014051010943335978 -0.023679522558733745 0 0 0 -0.025219455354854883 -0.071825664218441942 0.0044057176948237697 0 0.0044057176948237697 -0.015433422904956095 0 0 0 -0.021814771780849507 -0.069161253399805112 0.0010900005803108645 0 0.0010900005803108645 -0.018533954362403585 0 0 0 -0.021923801940552167 -0.052693111275548654 -0.012826854304076159 0 -0.012826854304076159 0.024442664380226908 0 0 0 -0.0070626117238304503 -0.040560336760700325 -0.040787807862973993 0 -0.040787807862973993 0.060882209929696965 0 0 0 0.0050804682922491887 -0.057744048183852516 -0.028622180393879898 0 -0.028622180393879898 0.02285434211544534 0 0 0 -0.0087224265171017903 -0.059246301321740302 -0.017724417684997912 0 -0.017724417684997912 0.042798290209645207 0 0 0 -0.0041120027780238155 -0.055441902253317382 -0.023261168978048294 0 -0.023261168978048294 0.020663334354390217 0 0 0 -0.0086946419747317705 -0.037603596193727939 -0.0011730537011506205 0 -0.0011730537011506205 0.061653586891133427 0 0 0 0.0060124976743513581 -0.037574188553143928 -0.012315478178281242 0 -0.012315478178281242 0.03059290022771799 0 0 0 -0.0017453220813564152 -0.15980399537362405 0.0014758823658687443 0 0.0014758823658687443 0.00079356042314271402 0 0 0 -0.039752608737620321 -0.29817570768080925 -0.0047620798454785203 0 -0.0047620798454785203 0.0048616627741064899 0 0 0 -0.073328511226675719 -0.02765003342979408 -0.011636478080951695 0 -0.011636478080951695 0.033886849379666767 0 0 0 0.001559203987468144 -0.031017914948453129 -0.0027342252763468688 0 -0.0027342252763468688 0.073459277762851105 0 0 0 0.010610340703599452 -0.090941013796600939 0.0037714502986193471 0 0.0037714502986193471 0.011540786656113577 0 0 0 -0.019850056785121833 -0.040074243117839775 0.0032969269931258493 0 0.0032969269931258493 -0.014800525856295257 0 0 0 -0.01371869224353376 -0.060717837915612603 -0.013285389982067592 0 -0.013285389982067592 -0.0082554074693195201 0 0 0 -0.017243311346233012 -0.044295599805181704 -0.0046331560733993606 0 -0.0046331560733993606 -0.015585895882537851 0 0 0 -0.014970373921929885 -0.033930469801258883 -0.058219429510298862 0 -0.058219429510298862 0.1171585058122987 0 0 0 0.020807009002759946 -0.1181565576141987 0.0005881760112121312 0 0.0005881760112121312 -0.005210499453625124 0 0 0 -0.030841764266955961 -0.11058034197700739 -0.00031963456857016584 0 -0.00031963456857016584 -0.0028344777149617376 0 0 0 -0.02835370492299228 -0.14676419581173947 -0.0088792892987902359 0 -0.0088792892987902359 -0.0030841631525853758 0 0 0 -0.037462089741081193 -0.16776460181331126 -0.010445271186488587 0 -0.010445271186488587 -0.008433614457265988 0 0 0 -0.044049554067644298 -0.13210373426641775 -0.0096412342578009857 0 -0.0096412342578009857 0.0013284986254158415 0 0 0 -0.032693808910250532 -0.032719206704212023 0.09569954968462735 0 0.09569954968462735 0.12232014631052368 0 0 0 0.022400234901577831 -0.0058969190767308444 -0.018131887817369075 0 -0.018131887817369075 0.039032590988890448 0 0 0 0.0082839179780398453 -0.014371284469882869 -0.010515551770813314 0 -0.010515551770813314 -0.0083714659875205651 0 0 0 -0.0056856876143508723 -0.072379696682143668 0.0032526966458537154 0 0.0032526966458537154 -0.0035935689346405231 0 0 0 -0.018993316404196037 -0.072377024834888781 -0.006918882348832197 0 -0.006918882348832197 0.052986775195225558 0 0 0 -0.0048475624099157955 -0.10069239795899847 0.0049357500876857259 0 0.0049357500876857259 -0.0007458568482944794 0 0 0 -0.025359563701823254 -0.0015520946727106688 0.03665878788073762 0 0.03665878788073762 0.034690958331635713 0 0 0 0.0082847159147311222 -0.04462895782609938 0.0054344889102341514 0 0.0054344889102341514 -0.014951306143486984 0 0 0 -0.014895065992396593 -0.03931341147460829 -0.019764175599283007 0 -0.019764175599283007 -0.0098506820108135995 0 0 0 -0.012291023371355434 0.029111466191007386 -0.077350376625562697 0 -0.077350376625562697 0.095528106094578 0 0 0 0.031159893071396355 -0.23203583697275143 0.022007395429988419 0 0.022007395429988419 0.0018903180023652766 0 0 0 -0.057536379742596511 -0.033971591239371948 0.0026718945858892804 0 0.0026718945858892804 -0.015164851434649932 0 0 0 -0.012284110668505472 -0.080374447492648923 0.00015531473269266615 0 0.00015531473269266615 -0.020001587153144384 0 0 0 -0.025094008661448314 -0.091256322875939794 -0.0075216257171381098 0 -0.0075216257171381098 -0.025385885799464398 0 0 0 -0.029160552168851051 -0.038986318459392259 0.011236103660691931 0 0.011236103660691931 0.016662255103970281 0 0 0 -0.0055810158388554963 -0.12541106388546003 0.0033375328800193949 0 0.0033375328800193949 0.0023228206157416276 0 0 0 -0.030772060817429614 -0.20892136410779427 -0.01338680499324002 0 -0.01338680499324002 0.0085514557771776689 0 0 0 -0.050092477082654199 -0.0076177635487435502 0.029986948308361017 0 0.029986948308361017 0.078035711847611822 0 0 0 0.017604487074717401 -0.047717800508852104 -0.016586112186797286 0 -0.016586112186797286 -0.0033332299731267945 0 0 0 -0.012762757620494725 -0.033141070348882876 0.0042511954377374428 0 0.0042511954377374428 0.068589628556934346 0 0 0 0.0088621395520128571 -0.031635403444958132 -0.024242984581531925 0 -0.024242984581531925 0.020362149749881042 0 0 0 -0.0028183134237692309 -0.044786907199125731 0.002971763307436176 0 0.002971763307436176 0.03264229009864561 0 0 0 -0.0030361542751199955 -0.044098185238686881 0.0049882207948626234 0 0.0049882207948626234 0.0068459322334413399 0 0 0 -0.0093130632513113813 -0.035715762620196587 -0.00018162631485381798 0 -0.00018162631485381798 -0.019542173580199315 0 0 0 -0.013814484050098975 -0.063902407866491401 0.0012140513058501584 0 0.0012140513058501584 0.0028112726582759373 0 0 0 -0.015272783802053862 -0.053027253379656913 -0.025695210426240626 0 -0.025695210426240626 0.1461293018113379 0 0 0 0.02327551210792024 -0.055554450654053636 -0.026487871625251055 0 -0.026487871625251055 0.13528119534037844 0 0 0 0.019931686171581201 -0.044005119330009945 -0.026566719039735176 0 -0.026566719039735176 0.00023723336333403289 0 0 0 -0.010941971491668978 -0.037320594184540812 -0.024567727735507972 0 -0.024567727735507972 -0.00037257829770220852 0 0 0 -0.0094232931205606718 -0.020353268211632081 0.04284363777194633 0 0.04284363777194633 0.04257277312713903 0 0 0 0.0055548762288770703 -0.02894689381785498 0.0424176345442282 0 0.0424176345442282 0.040747168966233538 0 0 0 0.0029500687870946951 -0.020811833365636634 0.050128547381446273 0 0.050128547381446273 0.022666164013573464 0 0 0 0.00046358266198431863 0.013566370502706482 0.049078314338832252 0 0.049078314338832252 0.031372230079435681 0 0 0 0.011234650145535374 -0.038232142397119508 0.0034580601899729343 0 0.0034580601899729343 -0.012744426255860367 0 0 0 -0.012744142163244968 -0.030780012619642444 0.0037334047416520966 0 0.0037334047416520966 0.088738536522547151 0 0 0 0.01448963097572617 -0.039339268371087095 0.00075920874911772351 0 0.00075920874911772351 0.054097910176505254 0 0 0 0.0036896604513545969 -0.090994403607767338 -0.019520308592197555 0 -0.019520308592197555 -0.0011927891618084274 0 0 0 -0.02304679819239408 -0.10456122030837528 -0.0081271602795063291 0 -0.0081271602795063291 -0.00059318001297281597 0 0 0 -0.02628860008033701 -0.17199075403963082 0.018204981048064006 0 0.018204981048064006 -0.0014416857242993686 0 0 0 -0.04335810994098277 -0.023019350662850636 0.027455115918743764 0 0.027455115918743764 0.037807750707078494 0 0 0 0.0036971000110569766 -0.018264566596410403 0.029962813490096545 0 0.029962813490096545 0.048448115897080035 0 0 0 0.0075458873251673941 -0.038883750532812296 0.0056371241969181661 0 0.0056371241969181661 -0.008345179945677187 0 0 0 -0.011807232619622375 -0.040665936209268144 0.0043564554467620444 0 0.0043564554467620444 -0.015226375357667271 0 0 0 -0.013973077891733854 -0.18781173591714148 -0.016298559532960506 0 -0.016298559532960506 -0.0065477773208456325 0 0 0 -0.048589878309496813 -0.122479285890378 0.0041652263447976984 0 0.0041652263447976984 -0.0014723800420521349 0 0 0 -0.030987916483107513 -0.11184874869463196 0.0061719562165688819 0 0.0061719562165688819 -0.0025040334205691517 0 0 0 -0.028588195528800275 -0.015608238938953134 0.028362089781485356 0 0.028362089781485356 0.089088204085214784 0 0 0 0.018369991286565357 -0.037198324499516655 -0.011198482988014624 0 -0.011198482988014624 0.0029888281114183179 0 0 0 -0.0085523740970245843 -0.039857594131100328 -0.0026515538530536599 0 -0.0026515538530536599 -0.017533099290468833 0 0 0 -0.01434767335539229 -0.026613787489293966 0.0013324858876221715 0 0.0013324858876221715 -0.010072117341860296 0 0 0 -0.0091714762077885689 -0.070539082807354547 -0.03174357596486288 0 -0.03174357596486288 0.0054010153058372534 0 0 0 -0.01628451687537924 -0.077421347210156588 -0.018979030959042742 0 -0.018979030959042742 -0.0014470049072345809 0 0 0 -0.019717088029347796 -0.043616935872182155 -0.015077904019599048 0 -0.015077904019599048 0.033428789121168381 0 0 0 -0.0025470366877534366 -0.013772008849837536 0.021881865646809696 0 0.021881865646809696 0.022229839601298845 0 0 0 0.0021144576878653343 -0.098501965897876187 0.064968449701670261 0 0.064968449701670261 0.0029434335862418282 0 0 0 -0.023889633077908701 -0.11175745828234762 -0.0028681727319614103 0 -0.0028681727319614103 0.004505147064168602 0 0 0 -0.026813077804544727 -0.18403323173371888 0.0042613279684658445 0 0.0042613279684658445 0.01233664311742011 0 0 0 -0.042924147154074666 -0.0052212956071406302 -0.0037295238274803744 0 -0.0037295238274803744 -0.019443965123151496 0 0 0 -0.0061663151825731011 -0.01076213623785266 -0.009109993128966154 0 -0.009109993128966154 -0.018824332942457556 0 0 0 -0.0073966172950775122 -0.099501065291772411 0.0064614997528136611 0 0.0064614997528136611 -0.00032530820882174794 0 0 0 -0.024956593375148554 -0.087484767215925921 0.0045500263568136329 0 0.0045500263568136329 -0.001637574395787697 0 0 0 -0.022280585402928373 -0.05396586267205785 -0.0064952078891506587 0 -0.0064952078891506587 0.01994353445966332 0 0 0 -0.0085055820530986204 -0.12308763879355762 0.0084853977477399312 0 0.0084853977477399312 0.0026229701472509359 0 0 0 -0.030116167161576612 -0.1334171119322505 -0.022419312118704654 0 -0.022419312118704654 -0.008430677262138489 0 0 0 -0.035461947298597231 -0.0011152278078206813 0.0017920217174077768 0 0.0017920217174077768 -0.011378789363673881 0 0 0 -0.0031235042928736546 -0.072979309562755779 0.073533271937746947 0 0.073533271937746947 0.0084301645217399468 0 0 0 -0.016137286260253791 -0.041273623859410337 0.0039421729633139753 0 0.0039421729633139753 -0.01375851794656909 0 0 0 -0.013758035451494859 0.024672668882494642 0.020493309572130913 0 0.020493309572130913 0.080518522181446506 0 0 0 0.026297797765985176 0.018946219023137829 0.043023805997058684 0 0.043023805997058684 0.1239923601100017 0 0 0 0.035734644783284905 -0.17153944323660725 0.020826505263086825 0 0.020826505263086825 0.031721466117319103 0 0 0 -0.034954494279822064 -0.0088502254512627249 0.044690973395534225 0 0.044690973395534225 0.12950586035812911 0 0 0 0.030163908726716565 0.0049152502641400253 0.037709500276962384 0 0.037709500276962384 0.086335399117151101 0 0 0 0.022812662345322782 -0.077700540922544387 0.005100372704942957 0 0.005100372704942957 0.0017371514938490651 0 0 0 -0.018990847357173823 -0.05782799829682056 0.00086664518750376868 0 0.00086664518750376868 -0.0031714982354087221 0 0 0 -0.015249874133057301 -0.14759939503128006 0.049497927299689715 0 0.049497927299689715 0.016037865210628777 0 0 0 -0.032890382455162959 -0.071897277111434163 -0.020126902466993529 0 -0.020126902466993529 0.066701873551185453 0 0 0 -0.001298850890062167 -0.03499548403239558 0.027131914130622964 0 0.027131914130622964 0.13772520832823459 0 0 0 0.025682431073959736 -0.049879373369587143 -0.025917147453893744 0 -0.025917147453893744 0.00071315883289935211 0 0 0 -0.012291553634171976 -0.12833984205099486 -0.0063776619337447271 0 -0.0063776619337447271 0.0043921335162528247 0 0 0 -0.030986927133685629 -0.22207908330431925 0.013193979569762371 0 0.013193979569762371 0.013984215118863386 0 0 0 -0.052023717046364049 -0.051450111197552717 0.026244088364160145 0 0.026244088364160145 -0.0076066731227601991 0 0 0 -0.014764196080078174 -0.026852870967700559 -0.028296148000742205 0 -0.028296148000742205 0.03953278453412401 0 0 0 0.0031699783916058766 -0.047803894523885448 -0.018318054619799823 0 -0.018318054619799823 0.024880285722827411 0 0 0 -0.0057309022002645094 -0.0056174642899729926 0.022931974583853217 0 0.022931974583853217 0.024291371713434734 0 0 0 0.0046684768558654527 -0.12167052814667922 -0.021158547540507854 0 -0.021158547540507854 -0.014535799303277391 0 0 0 -0.034051581862489182 -0.11284244328939125 0.0042236128643814014 0 0.0042236128643814014 0.0030995953402377929 0 0 0 -0.027435711987288391 -0.15795180700192213 -0.0093493447707643784 0 -0.0093493447707643784 0.010204026275594937 0 0 0 -0.036936945181581748 -0.040002771838480361 -0.030372049867312512 0 -0.030372049867312512 0.055350219780290089 0 0 0 0.0038368619854524111 -0.091240555761437997 0.0010775427494858214 0 0.0010775427494858214 0.0051354691030506133 0 0 0 -0.021526271664596835 -0.055402480531160238 0.0034285910813594473 0 0.0034285910813594473 0.10991297866269935 0 0 0 0.013627624532884759 -0.036673779336376125 -0.00074022872491852321 0 -0.00074022872491852321 -0.012223078553743626 0 0 0 -0.012224214472529939 -0.038499343348426057 -0.013607406456453031 0 -0.013607406456453031 0.018949260043699789 0 0 0 -0.0048875208261815739 -0.13214281181387322 0.0023965896781383 0 0.0023965896781383 0.0026002280080099083 0 0 0 -0.032385645951465813 -0.22415854690544101 -0.0097993040418415944 0 -0.0097993040418415944 0.0059418695438023805 0 0 0 -0.054554169340409686 -0.093050328897555878 -0.022970625036409675 0 -0.022970625036409675 0.0078813113045062555 0 0 0 -0.021292254398262489 -0.053730940013222428 -0.026987990819289556 0 -0.026987990819289556 0.038424418787701753 0 0 0 -0.003826630306380141 -0.041750136389865022 -0.020705166043291257 0 -0.020705166043291257 0.069836860801607892 0 0 0 0.0070216811029357729 -0.072363369992619581 0.0019379164482231093 0 0.0019379164482231093 0.0055404898453022267 0 0 0 -0.016705720036829325 -0.051529419745634963 -0.023834960688486673 0 -0.023834960688486673 0.0047360840380125113 0 0 0 -0.011698333926905558 -0.071683395449836762 -0.028180979577919318 0 -0.028180979577919318 0.001435857333313903 0 0 0 -0.017561884529130607 -0.084658174964183014 0.0022349330867844214 0 0.0022349330867844214 0.0050137529050730545 0 0 0 -0.019911105514777469 -0.04936435174709225 -0.026781858368739669 0 -0.026781858368739669 0.0014671143674143128 0 0 0 -0.011974309344919443 -0.037855797990916026 0.00053107747447467637 0 0.00053107747447467637 -0.019160126534781181 0 0 0 -0.014253981131424304 -0.13215078651912046 8.5648148589523299e-05 0 8.5648148589523299e-05 0.0019189344030108302 0 0 0 -0.032557963029027442 -0.23335527294676406 -0.0010363383009825977 0 -0.0010363383009825977 0.0028051341192369961 0 0 0 -0.05763753470688171 -0.056896920485813893 -0.011179041756094188 0 -0.011179041756094188 -0.0035314015372769347 0 0 0 -0.015107080505772516 0.0088778352336851829 0.021253698855888015 0 0.021253698855888015 0.09968701200860286 0 0 0 0.027141211810571664 -0.0022425441244255939 0.028745190005696974 0 0.028745190005696974 0.075564280879051537 0 0 0 0.018330434188656874 -0.040412453780880986 -0.0089306117137979129 0 -0.0089306117137979129 -0.0031952275300799471 0 0 0 -0.010901920327740289 -0.0025411970775155446 0.017018324320380588 0 0.017018324320380588 0.12503999361036477 0 0 0 0.030624699133212197 -0.020402039212473189 -0.02092931656515001 0 -0.02092931656515001 0.018628810042572774 0 0 0 -0.00044330729247507583 -0.061531517638616362 -0.023220885473502845 0 -0.023220885473502845 0.018587053263535158 0 0 0 -0.010736116093770343 0.0041638538939946512 -0.001625377805668614 0 -0.001625377805668614 0.089423502064607696 0 0 0 0.023396838989650615 -0.0030503935455377662 -0.00095673524924538844 0 -0.00095673524924538844 0.16588006555167101 0 0 0 0.040707418001533213 -0.15342580815226478 -0.013829105570210526 0 -0.013829105570210526 0.029934495667714112 0 0 0 -0.030872828121137619 -0.083600651754681038 0.003522389478910315 0 0.003522389478910315 -0.0029795639427789983 0 0 0 -0.021645053924364992 -0.038708339331283398 0.0084320848091583057 0 0.0084320848091583057 -0.0018989919793258002 0 0 0 -0.010151832827652288 -0.10086196674406511 0.055260502547460399 0 0.055260502547460399 -0.0053981153662072678 0 0 0 -0.026565020527567818 -0.013884312674134758 -0.029389312306690618 0 -0.029389312306690618 0.024932371466982683 0 0 0 0.0027620146982118565 -0.034199886807362585 0.0011502939673657692 0 0.0011502939673657692 -0.01598321702003944 0 0 0 -0.012545775956850505 -0.074329037063145892 -0.00033019401720524311 0 -0.00033019401720524311 0.017400257656418297 0 0 0 -0.014232194851681899 0.016941946966757548 0.017564740738394816 0 0.017564740738394816 0.077537953166769036 0 0 0 0.023619975033381646 -0.056890721477634167 -0.0099424233804525745 0 -0.0099424233804525745 -0.020234760888588874 0 0 0 -0.019281370591555748 -0.035561542586963632 -0.009211552170573456 0 -0.009211552170573456 0.0058685813315051127 0 0 0 -0.0074232403138646402 -0.027125182735033029 -0.01572465369256848 0 -0.01572465369256848 0.0080148332946528983 0 0 0 -0.0047775873600950335 -0.0076242953170759797 0.0052315480392591818 0 0.0052315480392591818 0.047458076114862413 0 0 0 0.0099584451994466083 0.0010424438718441564 0.00012370910160497406 0 0.00012370910160497406 0.086232115495976203 0 0 0 0.021818639841954979 0.0020630043095430373 -0.0060973773664888542 0 -0.0060973773664888542 0.15535153761843723 0 0 0 0.039353635481995108 -0.011245416311396694 -0.011123324341303475 0 -0.011123324341303475 0.095726391769051455 0 0 0 0.02112024386441369 -0.030393770422716133 0.022244867630481273 0 0.022244867630481273 0.043094175278094948 0 0 0 0.0031751012138447089 -0.018660191314774824 -0.028445132862419037 0 -0.028445132862419037 -0.0021990656913755402 0 0 0 -0.0052148142515375667 -0.0010892896367093868 -0.054700038382350116 0 -0.054700038382350116 0.049498464495616123 0 0 0 0.012102293714726667 -0.063204015898915306 -0.021856820725170145 0 -0.021856820725170145 0.0047914678265167376 0 0 0 -0.01460313701809976 -0.099227983299109368 0.0043512551820812347 0 0.0043512551820812347 0.0020940034476819025 0 0 0 -0.024283494962856839 -0.086344679770610513 0.0065433801230565646 0 0.0065433801230565646 0.0034233893794965442 0 0 0 -0.020730322597778503 -0.15211852717275737 0.0087012535722645612 0 0.0087012535722645612 0.06204596960419595 0 0 0 -0.022518139392140341 -0.020103365460440503 -0.00029419288440757363 0 -0.00029419288440757363 0.02938189704453964 0 0 0 0.0023196328960248258 -0.019210846740882359 -0.0097533826795308531 0 -0.0097533826795308531 0.06417449679104914 0 0 0 0.011240912512541612 -0.037747496844551649 0.0091239000013866988 0 0.0091239000013866988 0.0069279361534877494 0 0 0 -0.007704890172765981 -0.00028992417461171094 0.00056207889791237697 0 0.00056207889791237697 -0.018812276985043841 0 0 0 -0.0047755502899139435 -0.046314889622274646 0.0034298794165146902 0 0.0034298794165146902 -0.0089224585203301517 0 0 0 -0.013809337035651195 -0.05216535501629091 -0.026836256393455896 0 -0.026836256393455896 0.017193051447220498 0 0 0 -0.0087430758922675822 -0.03365586133216962 0.0013144925642516524 0 0.0013144925642516524 -0.019705312392151803 0 0 0 -0.013340293431080352 -0.031420055250357404 0.061406619742737312 0 0.061406619742737312 0.0079962058792908408 0 0 0 -0.0058559623427667518 -0.033149553943307208 0.049912085877877654 0 0.049912085877877654 0.015533102197303195 0 0 0 -0.0044041129365005593 -0.033712389067120554 -0.031532741248501583 0 -0.031532741248501583 0.0040048714426923482 0 0 0 -0.0074268794061068261 0.019271185304757476 -0.10775265002996369 0 -0.10775265002996369 0.18965941036789738 0 0 0 0.05223264891816369 -0.034974489945439745 0.0018431914310360054 0 0.0018431914310360054 -0.017902837830778492 0 0 0 -0.013219331944054556 -0.058884716899633704 -0.012437770455976382 0 -0.012437770455976382 0.0035606417322369133 0 0 0 -0.013831018791849337 0.0019126415131640595 0.00084890918246438574 0 0.00084890918246438574 0.00026547211614857957 0 0 0 0.00054452840732799324 -0.01250936592930163 0.0054692146424519805 0 0.0054692146424519805 0.17694514261689598 0 0 0 0.041108944171898809 0.00837930112098852 0.0019143595537522984 0 0.0019143595537522984 0.15569229824343617 0 0 0 0.041017899841105057 0.004390613470963256 -0.0040122009507168599 0 -0.0040122009507168599 0.081063219199733805 0 0 0 0.021363458167674265 0.0029788594698691995 -0.0013829250710861499 0 -0.0013829250710861499 0.00060636496461974332 0 0 0 0.00089630610862290183 -0.00042551339848594967 0.0010427610098133755 0 0.0010427610098133755 0.0020362051468575549 0 0 0 0.00040267293709284584 -0.009213987413788205 -0.0075676932785043761 0 -0.0075676932785043761 0.098601510355235789 0 0 0 0.022346880735361729 -0.00044033612453153737 -0.0016605787804166994 0 -0.0016605787804166994 0.0031784310483153888 0 0 0 0.00068452373094540775 -0.037602513123169055 0.00010606004699452207 0 0.00010606004699452207 -0.017654042407041333 0 0 0 -0.013814138882552595 -0.044405070886793171 -0.024810025003214442 0 -0.024810025003214442 -0.0057173896266813351 0 0 0 -0.012530615128368602 -0.084288968826053093 0.0044759995390053764 0 0.0044759995390053764 0.0093347638065302552 0 0 0 -0.018738551254880706 -0.057331387149689106 -0.031614239447036341 0 -0.031614239447036341 0.0059427632867308233 0 0 0 -0.012847155965739487 -0.046324618918014301 -0.0012059916775254583 0 -0.0012059916775254583 -0.018427647629860072 0 0 0 -0.01618806663696859 -0.031643944642055777 0.039627627368476137 0 0.039627627368476137 -0.0015163307593226705 0 0 0 -0.0082900688503448894 -0.028162189253902792 -0.032630541584184547 0 -0.032630541584184547 0.0091147890530551834 0 0 0 -0.0047618500502120131 -0.0079905113374935111 -0.0080730485308803113 0 -0.0080730485308803113 0.070731480472998598 0 0 0 0.015685242283876355 -0.016224674917513893 0.0012553167130444631 0 0.0012553167130444631 0.13419470945829381 0 0 0 0.029492508635195008 -0.069091907500836741 0.010301426851015011 0 0.010301426851015011 0.066527481475637029 0 0 0 -0.00064110650629992105 -0.077003061184421739 -0.0017275589195347996 0 -0.0017275589195347996 0.0098478209382850679 0 0 0 -0.016788810061534126 -0.035804426850063686 -0.014347086752787033 0 -0.014347086752787033 0.05077449731037964 0 0 0 0.003742517615079044 -0.035508910019851181 0.0075942692218753938 0 0.0075942692218753938 0.1023377360914744 0 0 0 0.016707206517905804 -0.039165097735687132 -0.038809068484789488 0 -0.038809068484789488 0.010912524180515693 0 0 0 -0.0070631433887929085 -0.034605324497668705 0.0085769439836889186 0 0.0085769439836889186 -0.00058718751561189636 0 0 0 -0.0087981280033201537 -0.030093036567621745 -0.035552714189565848 0 -0.035552714189565848 0.020216227959918509 0 0 0 -0.0024692021519256979 -0.044145042673354506 0.038829448053339544 0 0.038829448053339544 0.00016693807284440254 0 0 0 -0.010994526150127193 -0.03869964616543542 -0.00092271688252476558 0 -0.00092271688252476558 0.030108260485931071 0 0 0 -0.0021478464198760872 -0.025890650309908281 -0.0045041430584216724 0 -0.0045041430584216724 0.034369865464509153 0 0 0 0.0021198037886502319 -0.063321933974383751 0.0019372192056571307 0 0.0019372192056571307 -0.0036734259215158785 0 0 0 -0.016748839973974895 -0.060006222359295119 -0.011234538636621633 0 -0.011234538636621633 0.046200329028283221 0 0 0 -0.0034514733327529468 0.01029706252434015 -0.032894906195123363 0 -0.032894906195123363 0.024008889608157169 0 0 0 0.0085764880331243298 -0.04215673165739766 -0.026105810571839916 0 -0.026105810571839916 -0.0026463774230708892 0 0 0 -0.011200777270117193 0.040721108364383918 -0.022927563950872754 0 -0.022927563950872754 0.03156943630496345 0 0 0 0.018072636167336842 -0.026607811956592786 -0.0050923398709763479 0 -0.0050923398709763479 0.068410829200813872 0 0 0 0.010450754311055355 -0.040401755242996357 -0.0067311420095134689 0 -0.0067311420095134689 0.026716189607370433 0 0 0 -0.0034213914089064879 -0.09417263130522395 0.0036345670503073121 0 0.0036345670503073121 -0.0032363097178571415 0 0 0 -0.024352235255770276 -0.064776361937725915 -0.013240752665339507 0 -0.013240752665339507 0.051256979964461158 0 0 0 -0.0033798454933161998 -0.065464214624120914 -0.011814137338248005 0 -0.011814137338248005 0.062359495519055674 0 0 0 -0.00077617977626634471 0.022058195597118385 0.068071662063404176 0 0.068071662063404176 0.21493962516243303 0 0 0 0.05924945518988789 -0.038216133608000302 -0.022847471832850727 0 -0.022847471832850727 0.24579550740628708 0 0 0 0.051894843449571709 0.0038156132326190306 0.018419003283143141 0 0.018419003283143141 0.094630016217649882 0 0 0 0.024611407362567173 -0.040119297993849293 0.024438558233938239 0 0.024438558233938239 0.057143878318586999 0 0 0 0.0042561450811844231 -0.062433610806823303 -0.010745593804001946 0 -0.010745593804001946 0.00032312032276671232 0 0 0 -0.015527622621014148 -0.06381137537268651 0.0023216057212692145 0 0.0023216057212692145 -0.0067107673088891082 0 0 0 -0.01763053567039391 -0.117421846475544 -0.010216207469734695 0 -0.010216207469734695 -0.017503246420021955 0 0 0 -0.033731273223891474 -0.095076213590228845 -0.00017032095167534428 0 -0.00017032095167534428 -0.01174790155721555 0 0 0 -0.02670602878686109 -0.02619947906192439 0.0052019404718227427 0 0.0052019404718227427 -0.012119729975662581 0 0 0 -0.009579802259396742 -0.13537348127204185 -0.011369844081021842 0 -0.011369844081021842 -0.0030693084994065302 0 0 0 -0.034610697442862076 -0.11722308586694277 -0.012939163419572316 0 -0.012939163419572316 -0.027254014689840712 0 0 0 -0.036119275139195869 -0.17654525321363301 0.0091807359122614771 0 0.0091807359122614771 -0.0015546414099403202 0 0 0 -0.044524973655893342 -0.15538967836442008 0.01032458864833785 0 0.01032458864833785 -0.033559878776926462 0 0 0 -0.047237389285336648 -0.065780685920455745 -0.025084941265423433 0 -0.025084941265423433 0.026873311030329028 0 0 0 -0.0097268437225317417 -0.032207614084855264 0.0033611544292165437 0 0.0033611544292165437 -0.016195434627409664 0 0 0 -0.012100762178066229 0.019914127519666924 0.034196795934253954 0 0.034196795934253954 0.035634813216111727 0 0 0 0.013887235183944635 -0.039390128488758169 0.0068170004713594134 0 0.0068170004713594134 0.089661315000748254 0 0 0 0.012567796627997507 -0.024430796043531149 0.035279676253346604 0 0.035279676253346604 0.08722336729127686 0 0 0 0.015698142811936412 -0.040809652568771559 -0.04042631139684668 0 -0.04042631139684668 0.037573583477615191 0 0 0 -0.00080901727278914759 -0.0043802872183693158 -1.9078206054956581e-05 0 -1.9078206054956581e-05 0.011996529383162672 0 0 0 0.0019040605411984502 0.0013873021590744454 -0.0061932664236628021 0 -0.0061932664236628021 0.037301115301057147 0 0 0 0.0096721043650329543 0.0019422129142672572 0.0059250712519300919 0 0.0059250712519300919 0.076939307404046212 0 0 0 0.019720380079578478 -0.003375088002368176 -0.0004883566783848714 0 -0.0004883566783848714 0.0067440470579683059 0 0 0 0.00084223976390008799 -0.01350173987539631 0.0066909673291004612 0 0.0066909673291004612 0.0077687844406083839 0 0 0 -0.0014332388586970474 -0.014394957480140469 -0.014182957651191541 0 -0.014182957651191541 0.020507135330024351 0 0 0 0.0015280444624709566 -0.12862896845800251 -0.019653017486288536 0 -0.019653017486288536 -0.042798359334054244 0 0 0 -0.042856831948014179 -0.16724170837102645 0.018749678372267091 0 0.018749678372267091 -0.055644871189974451 0 0 0 -0.055721644890250221 -0.19089847170690563 0.018941815654657961 0 0.018941815654657961 -0.025995326945822461 0 0 0 -0.054223449663182023 -0.14885507857871641 -0.019125724960970647 0 -0.019125724960970647 -0.020511729110932686 0 0 0 -0.042341701922412274 -0.0363807884767956 -0.03859723205521981 0 -0.03859723205521981 0.014060886746336321 0 0 0 -0.0055799754326146811 -0.063641832975335641 0.0020722210124632795 0 0.0020722210124632795 0.0031862031419577774 0 0 0 -0.015113907458344462 -0.047555781820399823 -0.027499202001825596 0 -0.027499202001825596 0.0063715552500782646 0 0 0 -0.010296056642580403 -0.044910792643178155 -0.02729003472176493 0 -0.02729003472176493 -0.0033748509787746572 0 0 0 -0.012071410905488189 -0.056162574911190435 0.0010345616460440748 0 0.0010345616460440748 0.0028700391946149401 0 0 0 -0.013323133929143881 -0.042350325213522888 0.0043281066399969356 0 0.0043281066399969356 -0.0068122097370976291 0 0 0 -0.01229063373765513 -0.042195053180632248 0.0049619734312023765 0 0.0049619734312023765 -0.0063007931190378497 0 0 0 -0.012123961574917524 -0.064080949219032221 -0.050597373951791952 0 -0.050597373951791952 0.15670450278156053 0 0 0 0.023155888390632109 0.010966073599701628 -0.011672089089915544 0 -0.011672089089915544 0.4406064947611727 0 0 0 0.11289314209021861 -0.080626374619901436 -0.018370774698000358 0 -0.018370774698000358 0.018157654675050511 0 0 0 -0.015617179986212842 -0.028428314159220536 -0.0023778962979357499 0 -0.0023778962979357499 0.059401834767760842 0 0 0 0.0077433801521350487 -0.04047722905688686 -0.015175317779477671 0 -0.015175317779477671 0.034218855770099088 0 0 0 -0.0015645933216970609 -0.043713739476093513 0.0065313388038293211 0 0.0065313388038293211 0.0083172758642692801 0 0 0 -0.0088491159029560687 -0.023742194948450202 0.031599612043863967 0 0.031599612043863967 0.073164765402848886 0 0 0 0.012355642613600004 -0.031818156096919181 -0.015455620533498804 0 -0.015455620533498804 -0.0020589740354797215 0 0 0 -0.0084692825330997534 0.0086315110816803098 -0.036814145173680757 0 -0.036814145173680757 0.072237580496742837 0 0 0 0.02021727289460587 -0.022173227214343671 -0.0067377297977070233 0 -0.0067377297977070233 0.023444416563954518 0 0 0 0.00031779733740269767 -0.048815928659512453 0.030764549346511405 0 0.030764549346511405 0.0035972325409296957 0 0 0 -0.011304674029646078 -0.028866466258978374 -0.030554479724604011 0 -0.030554479724604011 0.034204928542368673 0 0 0 0.0013346155708475749 -0.021619671863957413 -0.029558229870367644 0 -0.029558229870367644 0.028048575835823986 0 0 0 0.0016072259929664767 -0.026109312553324604 -0.0033309418735466279 0 -0.0033309418735466279 -0.0098496127901583908 0 0 0 -0.0089897313358706654 -0.020631945011864661 -0.0077849587286909494 0 -0.0077849587286909494 0.082571653702955328 0 0 0 0.015484927172772778 -0.043600883340636082 -0.0094921016670573496 0 -0.0094921016670573496 -0.010225878507401281 0 0 0 -0.013456690462009334 -0.020737945650391734 -0.0077731637943193599 0 -0.0077731637943193599 -0.026286441887965362 0 0 0 -0.011756096884589354 -0.069396073002693015 0.0032644425110120827 0 0.0032644425110120827 -0.007658751848280714 0 0 0 -0.019263706212743426 -0.063011911712456931 0.0036613977155000041 0 0.0036613977155000041 -0.0094360046727635719 0 0 0 -0.018111979096305131 -0.06554351699152032 -0.0063014103311888475 0 -0.0063014103311888475 0.037084657786452681 0 0 0 -0.0071147148012669185 -0.060598052263013458 -0.023021943092891628 0 -0.023021943092891628 0.043980327471898839 0 0 0 -0.0041544311977786408 -0.05450000216934562 0.00084429096590268003 0 0.00084429096590268003 -0.0059309816530383769 0 0 0 -0.015107745955596007 -0.050394772074647112 0.0029287080911474927 0 0.0029287080911474927 0.0038006121159842032 0 0 0 -0.011648539989665734 -0.053953875391710204 0.0011081755583444396 0 0.0011081755583444396 0.0031015598358020112 0 0 0 -0.012713078888977046 -0.012412511487059907 0.0084548203628537766 0 0.0084548203628537766 -0.013105521801582531 0 0 0 -0.0063795083221607207 -0.0046266819333196652 0.010282387760337547 0 0.010282387760337547 0.010920596417021589 0 0 0 0.0015734786209255502 -0.0049700728173311393 -0.015254723984909235 0 -0.015254723984909235 0.034894758148457994 0 0 0 0.0074811713327817553 -0.014595658688907082 -0.012827987779351346 0 -0.012827987779351346 0.0053783232244994927 0 0 0 -0.0023043338661019319 -0.019213305622789681 -0.048996480951390711 0 -0.048996480951390711 0.15534210346849603 0 0 0 0.034032199461426618 -0.002941817178388817 0.02060356142150388 0 0.02060356142150388 0.061931720648507493 0 0 0 0.014747475867530113 -0.0011658460323351605 -0.0035226328460595813 0 -0.0035226328460595813 -0.0025648709165304595 0 0 0 -0.00093267923721662704 -0.0026672309351559731 -0.017417677490044081 0 -0.017417677490044081 0.030430664431445598 0 0 0 0.0069408583740723229 -0.0011686111027187085 0.0039585429142539041 0 0.0039585429142539041 -0.001190319724680311 0 0 0 -0.00058973270684981038 -0.053506624965749872 0.041536746873740621 0 0.041536746873740621 -0.003969643375006271 0 0 0 -0.014369067085189702 -0.033122290699793222 -0.034829967183287652 0 -0.034829967183287652 0.019499789989671168 0 0 0 -0.0034056251775305135 -0.026038475241261794 -0.035654769789277174 0 -0.035654769789277174 0.017337958502130046 0 0 0 -0.0021751291847829091 -0.05885947960270764 -0.01004368436201878 0 -0.01004368436201878 0.051656811061063457 0 0 0 -0.0018006671354110632 0.0023362291394999346 0.013440713293173034 0 0.013440713293173034 0.044840330787238258 0 0 0 0.011794139981683216 -0.0012812527657368733 -0.0004637501387426135 0 -0.0004637501387426135 0.0043222182037938595 0 0 0 0.00076024135951380245 -0.0023192514865288949 -0.00029745693405880402 0 -0.00029745693405880402 0.0085418939281485251 0 0 0 0.0015556606104047965 3.9205521885410377e-05 -0.011460821721153591 0 -0.011460821721153591 0.016601891259946377 0 0 0 0.0041602741954578359 -0.030930307585303685 -0.0060934868715294965 0 -0.0060934868715294965 -0.020524632107585594 0 0 0 -0.012863734923222347 0.013073603831339445 -0.035360493100761281 0 -0.035360493100761281 0.0097717722634103055 0 0 0 0.0057113440236874619 0.011147456159043334 -0.00022660375183403136 0 -0.00022660375183403136 0.088713810495961498 0 0 0 0.024965316663751236 0.013981484535111388 -0.0044765915946822221 0 -0.0044765915946822221 0.1660051092549083 0 0 0 0.044996648447504894 -0.036961570695207897 0.0059116436735305103 0 0.0059116436735305103 -0.0095578709085626726 0 0 0 -0.011629860400942644 -0.084687256897523877 0.043770088074298108 0 0.043770088074298108 0.0021597152781120954 0 0 0 -0.020631885404852834 -0.094232441209411544 0.041968997780537046 0 0.041968997780537046 -0.0017096393938187404 0 0 0 -0.023985520150807238 -0.033491344352712067 -0.0095399406868958425 0 -0.0095399406868958425 -0.012601859995168073 0 0 0 -0.011523301086970091 -0.053227318151969544 -0.0051580954521283154 0 -0.0051580954521283154 0.017019241884735629 0 0 0 -0.0090520190668084595 -0.054613935469449065 -0.027425310102112327 0 -0.027425310102112327 0.0040495743894132866 0 0 0 -0.012641090270008894 -0.045682602906554758 -0.032786063838515428 0 -0.032786063838515428 0.021521652819723368 0 0 0 -0.0060402375217078683 -0.059089349966428895 0.043714874220090016 0 0.043714874220090016 -0.0032792325662507338 0 0 0 -0.01559214563317024 -0.031035835418898206 -0.034413594378652212 0 -0.034413594378652212 0.020361962366640007 0 0 0 -0.0026684682630646606 -0.035453754159606388 -0.036722604357101285 0 -0.036722604357101285 0.015170770230112041 0 0 0 -0.005070745982373781 -0.11267445202816009 -0.0018759626798385996 0 -0.0018759626798385996 -0.011559230253928535 0 0 0 -0.031058420570522157 -0.15135009810672079 -0.0091249443060563637 0 -0.0091249443060563637 -0.017321540252650897 0 0 0 -0.042167909589842907 -0.1395776653333807 -0.01541722419248687 0 -0.01541722419248687 -0.001524440378527385 0 0 0 -0.035275526427976996 -0.10659371308535306 0.0028209416613433069 0 0.0028209416613433069 -0.0020484316161952648 0 0 0 -0.0271605361753871 -0.059961743763319059 -0.0062603803781125476 0 -0.0062603803781125476 0.025493899495209443 0 0 0 -0.0086169610670273674 -0.077764174748779169 0.035014247180329194 0 0.035014247180329194 -0.0066930203140120881 0 0 0 -0.021114298765697592 -0.023694767971101371 -0.029163337091423491 0 -0.029163337091423491 0.033544138858675243 0 0 0 0.0024623427218932736 -0.026870425549385235 -0.030692862711738517 0 -0.030692862711738517 0.025824577625563894 0 0 0 -0.00026146198095533535 -0.061920340330873486 -0.037517300470750303 0 -0.037517300470750303 0.0096409866731717031 0 0 0 -0.013069838414425244 -0.035563106963251427 -0.0082967565399727494 0 -0.0082967565399727494 -0.014797047275394382 0 0 0 -0.012590038559661502 -0.034803165204563086 -0.017287714940370971 0 -0.017287714940370971 -0.0037108495556145982 0 0 0 -0.0096285036900444348 -0.051810791665176562 -0.011932079036001381 0 -0.011932079036001381 0.018028513250415462 0 0 0 -0.0084455696036902922 -0.095016909262550769 0.0043488230916305434 0 0.0043488230916305434 -0.0063996917251882557 0 0 0 -0.025354150246934756 -0.10401234539168813 0.06966664561529301 0 0.06966664561529301 0.019680133740979544 0 0 0 -0.021083052912677092 -0.070383701534003418 -0.033027862506488093 0 -0.033027862506488093 0.011979651999816987 0 0 0 -0.014601012383546719 -0.023188147297530243 0.044142079289141378 0 0.044142079289141378 0.031820902828497921 0 0 0 0.0021581888827421347 -0.04178385649247033 -0.026850317682536984 0 -0.026850317682536984 -0.0033213992970244632 0 0 0 -0.011276313947373641 -0.020826086415896006 0.065064745846539984 0 0.065064745846539984 0.010659821090083899 0 0 0 -0.0025415663314529713 -0.087827781758655576 0.0031653140277121544 0 0.0031653140277121544 0.0010177639536332606 0 0 0 -0.021702504451255558 -0.055422573411623301 -0.0034089014925314694 0 -0.0034089014925314694 0.012294625258687459 0 0 0 -0.010781987038233945 -0.060576859759892354 -0.033697993128915082 0 -0.033697993128915082 0.002137493337245111 0 0 0 -0.014609841605662144 -0.0067192433908115287 0.0092660121409525731 0 0.0092660121409525731 0.048486800826366055 0 0 0 0.010441889358888574 -0.010845519484606936 -0.012791888698822917 0 -0.012791888698822917 0.096221854099243664 0 0 0 0.021344083653659196 -0.052919821824048127 -0.00099087450506315025 0 -0.00099087450506315025 0.0012685739900333524 0 0 0 -0.012912811958503689 0.0023747854544207136 -5.7642874974561664e-05 0 -5.7642874974561664e-05 0.004680204280486322 0 0 0 0.0017637474337268699 -0.0064591378177150105 0.0013124796630048507 0 0.0013124796630048507 0.0020049277757543393 0 0 0 -0.0011135525104899457 -0.000834959359326648 -0.015957125763252478 0 -0.015957125763252478 0.044951322627148294 0 0 0 0.011029090816955467 -0.0014464018075588392 -0.0075606682432415306 0 -0.0075606682432415306 0.046199160379819304 0 0 0 0.011188189643065005 -0.0026412790691443533 0.0085901473716121224 0 0.0085901473716121224 0.093241597521076969 0 0 0 0.022650079612983376 0.0016493927630603089 -0.0001353336563763019 0 -0.0001353336563763019 0.0026685109629891457 0 0 0 0.0010794759315126967 0.0022348215085088441 0.016808826884814998 0 0.016808826884814998 0.093430138049406253 0 0 0 0.023916239889479218 -0.0052498233786333337 -0.0015054194509966923 0 -0.0015054194509966923 0.00063093449717932515 0 0 0 -0.0011547222203633911 -0.034898350411636414 -0.010623204918854712 0 -0.010623204918854712 -0.017953163115838056 0 0 0 -0.013212878381868576 -0.038190042797887735 -0.012713793630434728 0 -0.012713793630434728 0.016329711748085174 0 0 0 -0.0054650827624506126 -0.047140792388492059 -0.015325279331883587 0 -0.015325279331883587 0.012170323670969818 0 0 0 -0.008742617179380463 -0.021239637345956075 -0.002096763419528247 0 -0.002096763419528247 -0.016670106834411669 0 0 0 -0.009477436045092047 -0.021069770168353208 0.00094417574828953299 0 0.00094417574828953299 -0.0098121305382767865 0 0 0 -0.0077204751766575264 -0.041401816592067757 0.030191316849157795 0 0.030191316849157795 0.12194166789382224 0 0 0 0.020134962825438647 -0.067506877824018263 -0.018481012845062664 0 -0.018481012845062664 0.016248429819850835 0 0 0 -0.012814612001041871 -0.070612434331681739 -0.02928782294186244 0 -0.02928782294186244 0.0088654537269798883 0 0 0 -0.015436745151175491 -0.075292942315746902 3.4222606479100866e-05 0 3.4222606479100866e-05 0.0047995117878300297 0 0 0 -0.017623357631979239 -0.12638094067595274 0.05127216967053061 0 0.05127216967053061 0.0046432452249645095 0 0 0 -0.030434423862747084 -0.10277530234840071 0.07037427062648649 0 0.07037427062648649 0.045933814317684396 0 0 0 -0.014210372007679051 -0.035475855284844163 0.02866545273054566 0 0.02866545273054566 0.078820967558190624 0 0 0 0.010836278068336577 -0.028265415745167222 -0.01077575585445349 0 -0.01077575585445349 0.033217280865039278 0 0 0 0.001237966279968028 -0.035792278950424639 -0.0094588186743300023 0 -0.0094588186743300023 0.034864429223172344 0 0 0 -0.00023196243181300424 -0.00035205528680423703 0.040935558684092446 0 0.040935558684092446 0.084495825433909544 0 0 0 0.02103594253677632 -0.072920733190484699 -0.03302386029555604 0 -0.03302386029555604 0.02135070935278105 0 0 0 -0.012892505959425871 -0.085585087814031319 -0.023525844104811844 0 -0.023525844104811844 0.001849758447449279 0 0 0 -0.020933832341645392 -0.031794166304414687 0.025495540259384789 0 0.025495540259384789 0.059874897778250502 0 0 0 0.0070201828684589435 -0.017083848178393254 0.031898507281478333 0 0.031898507281478333 0.048709910171580773 0 0 0 0.0079065154982968545 -0.049569467103839415 -0.018923850004631648 0 -0.018923850004631648 0.027816785816800693 0 0 0 -0.0054381703217596944 -0.053549826501922131 -0.0080905971254073214 0 -0.0080905971254073214 0.01394743011919225 0 0 0 -0.0099005990956824441 -0.053279044406851037 -0.0067872230806802943 0 -0.0067872230806802943 0.024842616301960746 0 0 0 -0.0071091070262225831 -0.054606202288447814 -0.0047428947655632492 0 -0.0047428947655632492 0.041175657804436591 0 0 0 -0.0033576361210027779 -0.0026123154438932872 0.021428063948573328 0 0.021428063948573328 0.13044201268042688 0 0 0 0.031957424309133842 -0.033580135352309859 -0.0069346334460951287 0 -0.0069346334460951287 0.00032864442154245666 0 0 0 -0.0083128727326921004 -0.087891908296549054 0.0063833991795214512 0 0.0063833991795214512 0.00094223178128763352 0 0 0 -0.021737419128815355 -0.039803323402004737 0.0046196520449607323 0 0.0046196520449607323 -0.014521965606964931 0 0 0 -0.013581322252242413 0.030549222246869845 0.021413438452382527 0 0.021413438452382527 0.074700591344795786 0 0 0 0.026312453397916324 -0.029091318001960076 -0.0070027573424475409 0 -0.0070027573424475409 -0.016122653098945339 0 0 0 -0.011303492775226465 -0.07865947924878855 -0.029509660473860978 0 -0.029509660473860978 0.00018020580785133022 0 0 0 -0.019619818360234326 -0.10722535153642264 -0.023039675088365567 0 -0.023039675088365567 0.0047866466239349093 0 0 0 -0.025609676228121922 -0.042169281550324789 -0.013298094461237198 0 -0.013298094461237198 0.05075299999800631 0 0 0 0.0021459296119203386 
</DataArray>
<DataArray type="Float64" Name="cross_section_updated" format="ascii">
0.0010109370003216114 0.0010269050648886668 0.0010363898371435897 0.0010451482835018384 0.001054113921812286 0.0010637834012152084 0.0010742546381969761 0.0010848593264525636 0.0010954783799362762 0.0011049171730346456 0.002038466075790335 0.0020990712358405607 0.002139589592757684 0.0021755268544403597 0.0022103354355250218 0.0022445277694484529 0.0022785204009353236 0.0023114792020533593 0.0023433911127297199 0.0023731491794609155 1 1 1 1 1 1 1 1 1 1 1 1 1 1 1 1 1 1 1 1 1 1 1 1 1 1 1 1 1 1 1 1 1 1 1 1 1 1 1 1 1 1 1 1 1 1 1 1 1 1 1 1 1 1 1 1 1 1 1 1 1 1 1 1 1 1 1 1 1 1 1 1 1 1 1 1 1 1 1 1 1 1 1 1 1 1 1 1 1 1 1 1 1 1 1 1 1 1 1 1 1 1 1 1 1 1 1 1 1 1 1 1 1 1 1 1 1 1 1 1 1 1 1 1 1 1 1 1 1 1 1 1 1 1 1 1 1 1 1 1 1 1 1 1 1 1 1 1 1 1 1 1 1 1 1 1 1 1 1 1 1 1 1 1 1 1 1 1 1 1 1 1 1 1 1 1 1 1 1 1 1 1 1 1 1 1 1 1 1 1 1 1 1 1 1 1 1 1 1 1 1 1 1 1 1 1 1 1 1 1 1 1 1 1 1 1 1 1 1 1 1 1 1 1 1 1 1 1 1 1 1 1 1 1 1 1 1 1 1 1 1 1 1 1 1 1 1 1 1 1 1 1 1 1 1 1 1 1 1 1 1 1 1 1 1 1 1 1 1 1 1 1 1 1 1 1 1 1 1 1 1 1 1 1 1 1 1 1 1 1 1 1 1 1 1 1 1 1 1 1 1 1 1 1 1 1 1 1 1 1 1 1 1 1 1 1 1 1 1 1 1 1 1 1 1 1 1 1 1 1 1 1 1 1 1 1 1 1 1 1 1 1 1 1 1 1 1 1 1 1 1 1 1 1 1 1 1 1 1 1 1 1 1 1 1 1 1 1 1 1 1 1 1 1 1 1 1 1 1 1 1 1 1 1 1 1 1 1 1 1 1 1 1 1 1 1 1 1 1 1 1 1 1 1 1 1 1 1 1 1 1 1 1 1 1 1 1 1 1 1 1 1 1 1 1 1 1 1 1 1 1 1 1 1 1 1 1 1 1 1 1 1 1 1 1 1 1 1 1 1 1 1 1 1 1 1 1 1 1 1 1 1 1 1 1 1 1 1 1 1 1 1 1 1 1 1 1 1 1 1 1 1 1 1 1 1 1 1 1 1 1 1 1 1 1 1 1 1 1 1 1 1 1 1 1 1 1 1 1 1 1 1 1 1 1 1 1 1 1 1 1 1 1 1 1 1 1 1 1 1 1 1 1 1 1 1 1 1 1 1 1 1 1 1 1 1 1 1 1 1 1 1 1 1 1 1 1 1 1 1 1 1 1 1 1 1 1 1 1 1 1 1 1 1 1 1 1 1 1 1 1 1 1 1 1 1 1 1 1 1 1 1 1 1 1 1 1 1 1 1 1 1 1 1 1 1 1 1 1 1 1 1 1 1 1 1 1 1 1 1 1 1 1 1 1 1 1 1 1 1 1 1 1 1 1 1 1 1 1 1 1 1 1 1 1 1 1 1 1 1 1 1 1 1 1 1 1 1 1 1 1 1 1 1 1 1 1 1 1 1 1 1 1 1 1 1 1 1 1 1 1 1 1 1 1 1 1 1 1 1 1 1 1 1 1 1 1 1 1 1 1 1 1 1 1 1 1 1 1 1 1 1 1 1 1 1 1 1 1 1 1 1 1 1 1 1 1 1 1 1 1 1 1 1 1 1 1 1 1 1 1 1 1 1 1 1 1 1 1 1 1 1 1 1 1 1 1 1 1 1 1 1 1 1 1 1 1 1 1 1 1 1 1 1 1 1 1 1 1 1 1 1 1 1 1 1 1 1 1 1 1 1 1 1 1 1 1 1 1 1 1 1 1 1 1 1 1 1 1 1 1 1 1 1 1 1 1 1 1 1 1 1 1 1 1 1 1 1 1 1 1 1 1 1 1 1 1 1 1 1 1 1 1 1 1 1 1 1 1 1 1 1 1 1 1 1 1 1 1 1 1 1 1 1 1 1 1 1 1 1 1 1 1 1 1 1 1 1 1 1 1 1 1 1 1 1 1 1 1 1 1 1 1 1 1 1 1 1 1 1 1 1 1 1 1 1 1 1 1 1 1 1 1 1 1 1 1 1 1 1 1 1 1 1 1 1 1 1 1 1 1 1 1 1 1 1 1 1 1 1 1 1 1 1 1 1 1 1 1 1 1 1 1 1 1 1 1 1 1 1 1 1 1 1 1 1 1 1 1 1 1 1 1 1 1 1 1 1 1 1 1 1 1 1 1 1 1 1 1 1 1 1 1 1 1 1 1 1 1 1 1 1 1 1 1 1 1 1 1 1 1 1 1 1 1 1 1 1 1 1 1 1 1 1 1 1 1 1 1 1 1 1 1 1 
</DataArray>
<DataArray type="Float64" Name="displacement_divergence" format="ascii">
0.010898886578499198 0.026860511480139907 0.03634009992301019 0.045102371784125433 0.054073177088189477 0.06374449597693771 0.074215011625716851 0.084818916143237666 0.095452187954893852 0.10483777012661308 0.019317181285078942 0.049505844866225383 0.069759259531290196 0.087720216119059724 0.10511818096041839 0.12220822290368667 0.13920295955047676 0.15565215414369604 0.17171437099803646 0.18617540887098247 -2.0087238951143309e-05 -5.0193955504240263e-06 -2.1457243202011272e-05 -2.2264452258016697e-05 -0.00010035747578354195 -7.502106992072123e-05 -0.00010750517395496929 -7.8001435189708123e-05 -8.7694420516717359e-05 -0.00014805283764105146 -2.8792701540030615e-05 -2.8651103429655439e-05 -4.4756232613481594e-05 -5.1169904567267991e-05 -5.2001837748066467e-05 -2.7786199221033734e-05 0.00024830021240004776 1.5372070521655831e-06 6.1807078918204097e-06 1.1766953576643722e-05 2.462848451919783e-06 -5.152287203946844e-06 -4.9073002392533392e-06 -4.2185657072866864e-05 0.00019802440167237536 -0.00015243664524097799 -8.5576421943946873e-05 -5.9100969845716621e-05 -3.2859611595996386e-05 -7.9397582246443942e-05 -6.1182851394924191e-06 -1.6069676931345788e-05 -1.9833111665025884e-05 -1.4893617708497398e-05 -2.7753189563230717e-05 -6.4267402624915043e-05 2.2963353389378975e-05 -7.7957195849410717e-05 0.00022736461000659913 1.263073664861062e-05 3.6010781447946231e-05 2.1525505474015009e-05 4.3973027256612e-05 -6.6564476038739537e-06 -4.2411373323638765e-05 -4.1555687228458512e-05 -5.0945827566314732e-06 -1.5270731712328323e-05 0.00025778221986458836 -7.3856640047846123e-06 2.5398917030417954e-05 -2.4964741353477996e-05 5.6886085666709771e-06 -2.6552744083689628e-05 -6.5366596067981293e-06 -7.7320918119350374e-05 -6.1651150007582985e-06 6.4729965665618998e-05 4.0276634068172321e-05 2.0856229461779091e-07 -1.6780817600185131e-05 7.6899135081155093e-05 -1.5631285133307915e-05 -1.9914079936286322e-05 -2.4338727584437628e-05 -8.3400705978432934e-05 -0.0001098941693212105 8.0209067121782034e-06 3.4307243611526373e-05 -8.7199710440941051e-05 -6.9552636497677983e-05 -3.6470381076566321e-05 -7.509278211567552e-05 -0.00010282574230872866 -2.9783738308920859e-05 -2.361806687238956e-05 9.092962663473955e-05 -5.754888491172087e-06 -3.2109951032189307e-05 -1.874631386404951e-05 -4.3522996737442414e-05 -0.00011024188974379756 -8.4691349525298061e-05 -4.2759555159362527e-05 1.1147167986520941e-06 -6.8246891047241305e-06 -1.8492651318617961e-05 -3.0954965010353692e-05 -5.859552973363153e-05 -2.2287539385082238e-05 -2.8051722291521755e-05 -2.9657368504882415e-05 -3.2815807372826774e-05 -8.6878143388432723e-06 -6.7396536511000072e-06 -1.525302716652837e-05 1.910846489538958e-05 8.702382630777078e-05 -2.1124895471574465e-07 -6.6740756002755218e-06 9.0794298482570202e-05 5.1681131334395896e-05 -3.4949240539252355e-05 -3.8897070826241943e-05 3.1493906151449941e-05 9.1206631037824351e-06 -1.346190633764961e-05 1.4974312934232193e-06 -8.5448741723875583e-06 1.2191161613576755e-05 -8.2211701421574038e-06 4.1032731979583157e-05 -7.9308693827521878e-05 -0.00012681598011287786 -7.9281629016780776e-06 0.00010696210199258381 -2.2367533870595977e-05 -2.131500718049808e-05 1.1659162753530526e-05 8.1219025093197048e-06 2.488048959887329e-05 2.6735378943577223e-06 1.3827652829064355e-05 -2.6946044691463335e-05 -2.5777486523724615e-05 -2.5357417165285116e-05 -1.0417851117839813e-07 -0.00011095997348077201 -3.4532430263678568e-05 -2.7825948359132149e-05 -2.3532953283295608e-05 -8.3725709424082835e-05 -6.7224421158995054e-05 -6.5843974758921311e-05 -0.00010493795916613892 -0.00010184516686915211 -2.5536144299360418e-05 -6.6727632719801018e-05 3.1773706582340078e-05 -1.2703361904338237e-06 -4.3791165644707306e-06 -2.639180858432272e-05 -4.9583443123455643e-06 -3.3831969365352253e-06 -1.172057672586325e-05 -2.9291140850424397e-05 -5.0821188224958677e-05 -4.6808219824948896e-05 -9.7223514394596323e-06 -5.812042533761904e-05 -4.8648486478436621e-05 -3.7182695419338885e-05 -3.3365857662922985e-05 -3.6601933798327682e-05 -3.7190412647709373e-05 -3.9404271678871122e-05 -1.2737366409942952e-05 -3.0504256542584893e-05 -4.1946089928289568e-05 1.2069911440306928e-05 -3.5885377046261359e-05 -3.0749917152723369e-05 -0.00011019220153059754 -8.4655460865228625e-05 9.1631139792039656e-05 -2.9513837633294005e-05 6.3669495753453835e-07 -2.6715714624823148e-05 -7.5736612238197105e-05 -0.00011767820635855201 -3.2737623365279787e-05 -6.9410482521538609e-05 -8.6532518245387716e-05 -7.0358276913940935e-05 -4.9319047262176967e-05 -5.0048249391960112e-05 -5.5413135657924082e-05 -2.8482979457513172e-05 1.4311754911227638e-05 -2.2586201286669411e-05 -3.7252488227310971e-05 -4.1158847179978169e-05 -6.0610480417826659e-05 -5.3131972351584947e-05 -3.318354820897634e-05 -3.0141043601819307e-05 -3.0617739589191249e-05 2.6943260093701977e-05 6.8216818979694349e-05 -1.3159834361230552e-05 -3.0041941725127993e-05 -3.2041394570793695e-05 -3.7900146828417913e-05 1.5649144126319778e-05 -2.3001784117031971e-05 -3.9713343597398591e-05 -2.9077993519793961e-05 -7.9232999840893431e-05 -0.00011635706344697158 -2.3146082397886242e-05 -5.8317530526025581e-05 -6.8461345300167563e-05 -0.00013210599249425679 -7.7509929857543305e-05 8.6636569552327842e-05 0.00026213332335194131 -1.0056985154353155e-05 -2.5345829592356693e-05 1.4966044940585848e-05 -1.6013051675929212e-05 -3.5234488301868621e-05 -4.5572391775355555e-05 -5.1482795327152924e-06 -0.00011531929130336912 -2.4043230452643581e-05 -3.3742410781075621e-06 -1.8571028116640657e-05 -3.601449593186812e-05 -2.0854098006435826e-05 -1.1738877311599129e-05 -6.7442460661374453e-05 -2.8444666133171058e-05 -0.00010046764014700069 -1.8493979714782893e-05 -2.1248473871808408e-05 -2.6377261306169582e-05 -2.148464004310055e-05 -2.8000839268190971e-05 7.7882241571776184e-05 -3.2345581893549502e-05 -3.8227256309449703e-05 -2.6949178841184411e-05 5.4801726009960422e-05 -8.00393314392658e-05 -3.2882783854596961e-05 -0.00011667776572323189 -7.7114650434611682e-05 -6.9088275007823507e-05 -3.2855185220613352e-05 -4.970064093671073e-06 -6.9752971570768722e-06 2.3141138055340666e-06 -3.0490745394034271e-05 -1.9066277329404108e-05 -9.0584720654597953e-06 -3.3385823385647946e-05 -7.0674904512985095e-06 9.0344354993351569e-06 -5.7105824380525652e-06 -7.4251322154917331e-06 1.1766333065572378e-06 -6.4933051326337477e-05 -4.750317550848216e-05 -5.4547529529245381e-05 -8.1340111707769395e-05 -6.5318099134277366e-05 -4.1971766865721791e-05 7.5364042018188698e-05 -8.4841647319644416e-05 -6.742015619759765e-05 -2.0550475987218198e-05 -5.0735239501635539e-05 -5.8870054361010536e-05 -9.4540056370252134e-05 -9.80954531676442e-05 1.9789356564063089e-05 -8.2321426677482192e-06 1.078958747248011e-05 -3.0114858414554205e-06 -4.2407260613703268e-05 4.5947125288129764e-05 8.4511513691845521e-05 -7.4617718095616777e-06 -5.5754008721910111e-05 -1.211643113211531e-05 -8.9680016311787663e-05 -2.2845605151636784e-05 -2.2858502852280164e-05 -2.3012893015340809e-05 -4.5579288752740894e-05 -4.2005672663940081e-05 -5.0337481102449779e-05 -5.1656129503135654e-05 -5.9002252242480973e-05 -8.4024447190780588e-05 -8.4870161205813881e-05 -6.8144902981199067e-05 -5.414474767589576e-05 -6.7275601917730755e-05 -4.4790489181608032e-05 2.5823219196712905e-05 -2.6879416854989839e-05 -1.0509548304579383e-05 2.4477414236681594e-06 -5.5175599266201481e-05 -6.6456395118729919e-05 -2.569440306941329e-05 -1.0662026778184095e-07 -5.6326012164250282e-05 2.0616207122386293e-05 -2.9746429928740161e-05 -6.1093875870511772e-06 -0.0001012237542334187 -7.1189010356878372e-05 -7.9477207875789795e-06 -3.1884223024898301e-05 -3.1022910220900946e-05 -0.00010190799867385509 -7.2739029733033224e-05 6.4403306774518491e-06 -1.8583224330518105e-05 -1.5660686222254173e-05 -5.6396032603203076e-05 -4.5344987039779837e-05 -1.1111247908048212e-05 -7.6125046860181094e-06 -5.3653977289994762e-05 -5.0557271467904183e-05 -4.9684747935778091e-05 -4.8424175789156454e-05 -2.3220216438951625e-05 3.099273668104783e-06 -1.5913090803794654e-05 -7.8698527617559327e-06 -2.9006267403001041e-05 -7.2760336755212096e-06 -1.1777792853676375e-05 6.4734626690826289e-07 -4.0586377615793676e-05 -2.2575956113402582e-05 -8.5811773150806095e-05 -6.8080539355106135e-05 -9.7948411680896449e-06 4.8817650122910628e-05 8.6693765874856473e-05 -1.3592574145859295e-05 -8.3839307117055848e-06 -1.9630867443007913e-05 -3.0415998854177971e-05 -2.8675014478784849e-05 -1.9014173775770932e-05 9.1790224674576375e-06 1.1779951727141497e-05 3.6030337356473966e-05 -1.8277327217958161e-06 -1.7038806522225777e-05 -2.9634007542061513e-05 -2.4659003731218204e-05 2.5972042222406969e-06 -1.5538010047723774e-05 -7.4924939842902494e-05 -6.2212335782053102e-05 1.6535002940112811e-05 -0.00010359817125794997 -7.8745918085277715e-05 -2.6795686177760909e-05 2.9335377343733208e-05 1.7043117157887456e-05 -5.6586130428484382e-06 -2.9726890735926959e-05 -1.6008382109923753e-05 -2.7411050664259001e-05 -6.1560867279414084e-05 -4.6339216768511511e-05 2.2598813921739661e-05 1.5076033124290409e-05 3.5773854421600648e-05 -1.5356535490709019e-05 -1.2327574134703286e-05 3.5503468648357564e-05 2.2204860011934557e-05 3.2923002528160647e-05 -1.5387811214167407e-05 -4.6456151415009224e-07 -1.5040258970670773e-05 -2.8870442883031965e-05 -1.4824263181270782e-06 -3.9850931778770955e-05 -6.5686924443533572e-05 -5.3539356184865297e-05 -1.7853621335103146e-05 1.6882022055221966e-05 -0.00010894980954688537 -3.3265437842334736e-05 -2.1637053016552136e-05 -2.7940502120307173e-05 -3.5158526123163893e-05 -4.2320142718428765e-05 -3.1322241336432659e-05 -2.2651828138635707e-05 -2.3187104258983533e-05 2.0907109536172147e-06 -7.2792073806127134e-05 7.2130815969848657e-05 -1.9132977835260238e-05 -2.6398357449671703e-05 -2.4492001944994904e-05 -1.5652081145902177e-05 8.1302991213733598e-06 -1.3673052611425561e-05 -1.9714554714856227e-05 -2.5646285105392472e-05 -6.230982015227612e-05 -2.553478685560074e-05 -1.1871541813751575e-05 -7.0146283851929838e-05 7.2888626046443809e-05 -1.2064929479951338e-05 -1.118554669842604e-05 -2.5693397561298375e-05 -3.1806063973692975e-05 1.4777520359863106e-05 -2.1048685056266345e-05 -3.4238668263432837e-05 -2.543369441788833e-05 -5.5707093105876416e-05 -4.1570082280013854e-05 -2.9339206364700361e-05 -5.7886231671592549e-05 -8.6137594354226445e-05 1.4714909243479426e-05 3.3651240710529627e-05 -4.0021153020821385e-06 -2.730785715618334e-05 8.6742363185889678e-05 -3.6343247482112813e-05 -1.0238895366294676e-05 3.750659592361154e-05 -2.694515491470832e-05 -6.7143220996873122e-06 -1.1886733861083461e-05 -3.4177981600274786e-05 -8.4603993373019248e-06 3.1541257667827994e-05 -1.1858770327725227e-05 -9.2700803437499992e-05 -0.00016162870638365738 4.8782384145169486e-05 -5.2247367351071521e-05 5.1326262062820767e-05 5.9081462552181777e-05 0.00010583894667532756 0.00010029487844464907 -7.3109797524946929e-06 7.4242469495122872e-06 5.949074493914264e-05 2.3764495355811936e-05 -1.5677414086133593e-05 3.3999390312355188e-05 -7.0038925355760465e-06 -6.3036856769358406e-06 1.1944215423983183e-05 -2.809181207991413e-05 3.2648441051594094e-05 -3.9247059316686287e-06 1.0799883993961862e-05 -4.4883942064248561e-06 1.2389729354211378e-05 6.4407184363410438e-06 -2.9407874740402845e-05 -2.8539763264195342e-05 -3.2872551413335395e-05 -4.3978890112460808e-06 -5.3042090404205496e-05 3.2886187347983884e-05 -2.0591090623454738e-06 1.5536939628875922e-07 -2.9035320569948688e-05 -3.0349243733712944e-05 -0.00017302702887251947 -9.4120283155395886e-05 -3.9244595684615721e-05 -4.4620919180548763e-05 -2.8491846437376904e-06 -4.2225937479505602e-06 -1.2308875519021398e-05 -9.7454977014552736e-05 -7.1888560679283085e-05 5.1222434523259894e-05 -8.0327609092888057e-05 -6.3575989830742382e-05 -2.5061489629978105e-05 6.8819608093916278e-05 -1.2547821618068435e-05 -7.9122541944958032e-06 -6.4961753687469142e-05 -6.0106431445938394e-05 -8.5697146648886681e-05 -0.00013667763384589573 -3.277777837216978e-05 2.3397841007604032e-05 -7.8781065137384707e-06 -2.7519579615051361e-06 -7.2364541949321985e-06 2.0489435985891107e-05 1.8585430136561784e-05 -1.7704396307588856e-05 -2.3202085424015828e-05 -3.7633336677548549e-06 6.0289943597548613e-05 -8.2015213841106464e-05 -0.00012456775466986286 -4.7983572618255483e-06 4.1968772693786426e-05 -1.9716680902564769e-05 -8.3135911444456403e-05 -6.5293571467331613e-05 -3.6203981639784479e-05 -4.6618020551199351e-06 1.0098133322494914e-05 -3.5908436069637501e-05 -4.0539933071543667e-05 2.0501779310201033e-05 1.9679927736520513e-05 -5.3354626957915412e-06 -1.0629993893879154e-05 -1.4603367657367538e-05 -5.2845649912896327e-06 8.7373137831229901e-05 8.356140943268503e-07 4.4019528981596224e-05 1.2410872125201075e-06 -1.3652485344668912e-05 -2.171445859490847e-05 -1.4008504642522166e-05 -0.00010701996741314376 -0.00012265190246584103 -2.9288074971087831e-05 -3.3968581734595171e-05 2.4011119656263031e-05 -6.2664938801590972e-05 -5.6985075569709071e-05 -6.6281836280279046e-05 -7.9964717589097161e-05 -4.2982658194329771e-05 -3.3017709778016945e-05 -4.5757836825048935e-05 -4.4293842381317056e-05 -4.2065867203919173e-05 -4.7211010155171279e-05 -7.822190487753386e-06 -2.0223041560461438e-05 -5.1255486187442204e-05 -5.2296145230643397e-05 -2.2242541232033835e-05 -5.6408372394186505e-05 -6.5034092532069207e-05 7.5856918771656967e-06 -2.5065269667962864e-05 -7.9969626250914332e-05 -6.8104328810047465e-05 3.4627297698014967e-05 -1.8932679918962211e-05 -3.8378894983562186e-05 1.4933398013371462e-05 -1.4110011284063951e-05 -1.7257810249148673e-05 -0.00011310149372154047 -8.3849944588647158e-05 1.3511226277202447e-05 -1.6850481959961215e-05 -2.8058168206796285e-05 -5.9481598389305021e-05 -6.1192792152075766e-05 -1.7703384489534493e-05 -2.6651731652582798e-05 -2.9042401939755714e-05 -1.2138311442270119e-05 -2.7387788645064022e-05 9.5313652484131531e-05 -3.8156459195406219e-05 -3.5258593390814601e-05 2.3895208248004901e-05 2.1106761782074173e-05 -6.1756780074838935e-05 -1.2729690083394053e-05 -7.9540221820761751e-05 -0.00013047080467291721 -7.7586772925231236e-05 -0.00013020422125548971 -7.6193359379623412e-05 -9.949088403473658e-05 -1.1254266224037482e-05 -4.7167110106454747e-07 2.9579205024726427e-05 7.1903001948614832e-05 8.4620661493316055e-06 5.6413548988634016e-05 1.5806761758091329e-05 -2.9454332363537374e-05 4.5391475131499885e-06 -1.0780996595738065e-05 -9.8089381788669285e-07 -8.4680018787893288e-05 -8.2722505347507193e-06 0.00010569098659076999 9.0095257745459304e-05 2.5697301712672514e-05 -0.00014352782338014164 -8.4250950844642661e-05 -6.5679190098021708e-06 -5.7606041967624231e-05 -3.6201738762096231e-05 -6.5779722831060383e-06 2.8608186612220909e-07 2.3634743209065496e-05 -1.2805445924042765e-05 -5.0713670870454513e-05 -5.5551700520508596e-05 -1.5484366554521399e-05 -1.5862275943126589e-05 -1.9744965422219794e-05 -2.0977082337466204e-05 -3.5815154529501196e-05 -2.7022909858810181e-05 -5.9792185110585564e-05 -7.1361586597071451e-05 -6.4834476248297576e-05 -0.00011093351415211294 -6.1211511535077948e-05 -2.1241558873429972e-05 -5.1862305616403237e-06 -9.466509830044259e-05 -0.00012366678953056108 -3.2871678454953633e-05 2.0012750079690116e-05 -8.4226204611265827e-05 -0.00014966030237585146 -4.461965685165285e-05 -8.3569847711913604e-05 -6.3539600342024874e-05 0.00011668770824070488 -0.00011416279492681637 -7.5590028092065146e-05 -3.1331314015293262e-05 -3.2269426000202479e-05 -3.6947521306620515e-06 -2.5253427638181929e-05 -1.4723200567120849e-05 0.00010286748298923062 -5.9339407314327532e-05 -2.948957711806673e-05 7.361930999698731e-05 -5.1649558141632873e-05 -0.00017959831870838726 -9.8662333924002502e-05 8.7149553460542711e-07 -8.0265534312650146e-05 -9.1617396150209059e-05 3.6145270762795228e-05 -3.3930581887156672e-05 -2.1427011362668398e-05 6.9040559606849822e-05 -1.0271936688995963e-05 -1.69825260913226e-05 6.571615188209973e-06 -2.5849504705032476e-05 -2.9651444909368357e-05 3.0143286305924118e-05 -4.2657778090484494e-05 3.5863138111797191e-05 -7.0708955281776535e-05 -3.5926525477518196e-05 -6.3109369589530253e-05 -5.1001685039272007e-05 -7.7232909852295416e-05 -6.9203027927917867e-05 -5.8711779175486204e-05 -5.8567542041015124e-05 -6.3048638387137203e-05 -5.4536929452123767e-05 -5.4809504851380424e-05 -1.7656529309576104e-05 1.270117073062293e-05 -2.1806066292754422e-05 -1.0280006945059534e-05 -2.173660493682948e-05 1.5031244185878426e-05 -4.3633052033912722e-06 -9.9381521844050993e-05 -0.00018332127806668921 3.8980099686704024e-06 2.6525851758998464e-05 -4.9625141962804712e-05 -3.4296730608834389e-05 -4.3108278365582566e-05 -3.7425934804824709e-05 5.2017522506899788e-05 -7.7104410667389904e-05 -7.0884262307480676e-05 -9.3655224352703038e-05 -0.00011012388516911074 -8.1734522275626583e-05 5.6000587253944752e-05 2.0709794945099704e-05 -1.4214219035877362e-05 -4.7483291010490071e-05 -1.2118906024789544e-05 -6.3398909254558166e-05 2.0711789786827597e-05 -3.7237664980991478e-05 -3.0727558428388619e-05 7.7899732678490924e-05 -0.00014384094935649067 -3.0710276671263674e-05 -6.273502165362082e-05 -7.2901380422127622e-05 -1.3952539597138725e-05 -7.6930152043574031e-05 -0.00012523119270663532 4.4011217686792253e-05 -3.1906894051237505e-05 2.2155348880032062e-05 -7.0457835594231943e-06 -7.5903856877998672e-06 -2.3282658128278449e-05 -3.4536210125247445e-05 -3.8181959505134674e-05 5.8188780269800519e-05 4.9829215428952983e-05 -2.7354928729172393e-05 -2.3558232801401333e-05 1.3887190572191895e-05 7.3751719677364949e-06 1.1589566549607792e-06 2.8086625363838054e-05 -3.1860355408112415e-05 3.6224077439315388e-05 9.2241511283863947e-06 -5.7616995480985322e-05 -6.572150020084269e-05 -0.00010839527485245618 9.2427500276424278e-06 1.8864718312918506e-05 -2.9518081549055924e-05 -3.4932694729334638e-05 -0.00012147469577374185 -7.7469791207768776e-05 -7.1470488822000677e-05 4.5924978216412525e-05 -2.1380935242561443e-05 -3.5869183388480723e-05 -2.2928690519471424e-05 -4.0711292188448482e-05 -4.9292720073369477e-05 -6.367591719383766e-06 5.2861442196632739e-06 -5.9724082694771535e-05 -6.7032694511362067e-05 -0.00010731036788518651 -1.5415787956432701e-05 -1.8491543237693798e-05 -6.2391483437871528e-05 -5.5701463507320932e-05 -2.1263955132746511e-05 -7.5290417903941587e-05 -8.8654868246492994e-05 -7.8087607321840932e-06 -4.0343215650634912e-05 -3.4395088628737154e-05 6.5744494414962705e-05 8.9336611958212321e-05 -8.7386235699555149e-05 7.5409771816791382e-05 5.7031655863306946e-05 -4.7477118392934568e-05 -3.8124685332643306e-05 -8.2225956137907136e-05 -3.2471272251555049e-06 6.4206077684899273e-05 -3.0728884085429913e-05 -7.7467317834213899e-05 -0.00013005929261591031 -3.6910490200196648e-05 7.9249459790148215e-06 -1.4327255500661169e-05 1.1671192139663653e-05 -8.5128954656223013e-05 -6.8589279968221e-05 -9.234236295395448e-05 9.5921549636309562e-06 -5.3815679161492032e-05 3.4069061332211948e-05 -3.0560536181324843e-05 -1.2218802065453913e-05 -8.096411487866476e-05 -0.00013638542335102436 -5.3230635995656086e-05 -9.5665757659505108e-06 1.7554202757339267e-05 -4.1764300092073304e-05 -2.9245834817264046e-05 -4.3904711322826581e-05 -4.9777763786943612e-05 -2.9935773362298873e-05 -3.5634952828560747e-05 -8.1394907572568571e-05 -0.00014409383676720455 -3.7767701264430713e-05 6.7853029526428817e-05 4.582608547164203e-05 -2.7254800819350496e-05 7.6561747833031775e-05 -1.1082682311876852e-06 -2.6840290234425557e-05 5.8492097474126476e-05 0.00010176854500383299 -7.7182070302844242e-05 -5.4112634810912481e-05 -2.5379582069130751e-05 -6.6412551318919839e-05 6.9050367455293377e-06 -3.1364439892126258e-05 -3.5580487129204685e-05 5.9049937583453838e-05 -4.8203426478889366e-05 -1.855810078466163e-05 -1.1943968400237523e-05 2.4896112998616486e-05 5.4546599604887811e-05 9.8384088704987554e-05 5.2800609661034394e-05 7.9377530346117739e-06 -1.3037035628843819e-05 3.0255734286816749e-05 -3.650784254524914e-05 -6.0708737407142214e-05 -5.1825806494446177e-05 -5.629534848035101e-05 5.7990822400621079e-06 2.8102281281354013e-05 -1.9262225431914922e-05 -1.1938875724785405e-05 -3.4523342589128013e-05 -2.1857689730669081e-05 -3.3350733577700874e-05 -1.463990585691714e-05 -1.1010282341251335e-05 -1.8567198515266956e-05 0.00013058162229540922 -3.304832986013639e-05 -3.4577546979623315e-05 1.3613210183200698e-06 0.00010277236042974692 0.00010254474960276456 5.3408645419185559e-05 2.2407652715550341e-06 1.0066823427329646e-06 5.586720183840474e-05 1.7113093273655317e-06 -3.4535347206381492e-05 -3.1326537820921551e-05 -4.6846378137201718e-05 -3.2117889914348935e-05 -4.0470166592421455e-05 -2.0725172125862258e-05 -1.1904625125529981e-05 3.9213105709690749e-05 7.3731271587987399e-05 -1.6027662657497072e-06 -4.1972025153835379e-05 9.3562940376972631e-06 4.1768016294764499e-05 -1.7657858471982653e-05 -2.1995320008300348e-05 -6.1730053798145917e-06 -2.7486315375318919e-05 -5.3696160496901789e-06 5.2995094716254279e-06 -4.1872099934937321e-05 -8.6286833318821398e-06 2.1441220082811161e-05 -2.8001943175292918e-05 4.5181590418342079e-05 2.6126885777638588e-05 -8.5534785222663107e-06 -6.0880588139425697e-05 -8.4496137332906019e-06 -1.9404494406658076e-06 0.00014812363797471972 0.00012973710862392929 6.1528518406418417e-05 1.064036270296111e-05 -3.8819056552535924e-05 -4.4076339175984813e-05 -8.4328183059728735e-05 -6.6765071967152739e-05 -2.3949505648491845e-05 -8.6526743607155199e-05 -9.0298187847989681e-05 -0.00011131243413973333 -0.0001180934732133416 -2.4317109306329333e-05 -3.0251905445165587e-05 3.4718087959861171e-05 3.1419491569993564e-05 3.924535702984109e-05 -2.0225431819727779e-06 4.7601513529959518e-06 2.418026091258214e-05 4.9300950198946299e-05 2.105599409749058e-06 -3.5830971467424016e-06 3.8201111561774435e-06 -0.00010714207987003544 -0.00013930411222562553 -0.00013555862415795512 -0.00010585425480603069 -1.3949938581536789e-05 -3.7784768645861183e-05 -2.5740141606450965e-05 -3.0178527263720594e-05 -3.3307834822859711e-05 -3.0726584344137812e-05 -3.0309903937293802e-05 5.7889720976580155e-05 0.00028223285522554646 -3.9042949965531894e-05 1.9358450380337435e-05 -3.9114833042425438e-06 -2.2122789757390123e-05 3.0889106533999594e-05 -2.1173206332749696e-05 5.054318223651446e-05 7.9449334350675934e-07 -2.8261685074114536e-05 3.3365389271186943e-06 4.0180649824163132e-06 -2.2474328339676603e-05 3.8712317931931695e-05 -3.3641726155023344e-05 -2.9390242211473631e-05 -4.8159265531858644e-05 -4.5279947740762827e-05 -1.7786787003167383e-05 -1.0386077994446546e-05 -3.7769364888990046e-05 -2.9121349974164349e-05 -3.178269722244261e-05 -1.5948770805401823e-05 3.933696552313893e-06 1.8702928331954086e-05 -5.7608346652546086e-06 8.5080498653566401e-05 3.686868966882445e-05 -2.3316980930412207e-06 1.7352145935180382e-05 -1.4743317671241964e-06 -3.5922667712974185e-05 -8.5140629438257634e-06 -5.4378229619573247e-06 -4.5016678385276533e-06 2.9485349954212411e-05 1.9006033987849225e-06 3.8891515260121995e-06 1.0400685488644399e-05 -3.2159337308055973e-05 1.4278360059218742e-05 6.2413291659377734e-05 0.00011249162111876215 -2.9074651002356585e-05 -5.1579713512131704e-05 -5.9963800377017817e-05 -2.8808252717425301e-05 -2.2630047667021208e-05 -3.1602725675022345e-05 -1.5100593804269584e-05 -3.898036408292449e-05 -6.6711706576613738e-06 -1.2676864955935094e-05 -7.7646051426305361e-05 -0.00010541977397460728 -8.8188816069942555e-05 -6.7901340438467739e-05 -2.1542402667568402e-05 -5.2785746914245368e-05 6.1558568047329412e-06 -6.5365495238852919e-07 -3.2674596036063908e-05 -3.1475096399153897e-05 -2.4071259225111043e-05 -2.1113924009225754e-05 -6.338537561733688e-05 -5.2707632281692751e-05 -3.6502530958866606e-05 5.3954722068553216e-06 -2.8190784868434486e-05 -6.3539158286322894e-06 -5.4256261128138952e-05 -2.6954967595584978e-05 -3.652460401415555e-05 2.6104723397221783e-05 5.3360209134148059e-05 -3.2282029896259283e-05 4.4093685843179381e-06 -2.7838812762265991e-06 2.7572727042388979e-05 2.7970474107662409e-05 5.6625199032458301e-05 2.6986898287810999e-06 5.9790599723698323e-05 -2.8868055509099523e-06 -3.3032195954671223e-05 -1.3662706906126523e-05 -2.1856542948451066e-05 -2.3693590112729588e-05 -1.9301187941643473e-05 5.033740706359651e-05 -3.2036530002604673e-05 -3.8591862877938735e-05 -4.4058394079948121e-05 -7.6086059656867936e-05 -3.552593001919708e-05 2.7090695170841478e-05 3.0949156999201134e-06 -5.7990607953270143e-07 5.2589856341940739e-05 -3.2231264898564913e-05 -5.2334580854113469e-05 1.7550457171147367e-05 1.9766288745742153e-05 -1.3595425804398828e-05 -2.4751497739206128e-05 -1.7772767565556462e-05 -8.3940903025069827e-06 7.9893560772833702e-05 -2.0782181831730017e-05 -5.4343547822038497e-05 -3.3953305630606027e-05 6.5781133494791175e-05 -2.8258731938066118e-05 -4.9049545900585814e-05 -6.4024190570304799e-05 5.3648240298007728e-06 
</DataArray>
</CellData>
</Piece>
</UnstructuredGrid>
</VTKFile>
