<?xml version="1.0"?>
<VTKFile type="UnstructuredGrid" version="0.1" byte_order="LittleEndian">
<UnstructuredGrid>
<Piece NumberOfPoints="3142" NumberOfCells="1054">
<Points>
<DataArray type="Float64" NumberOfComponents="3" format="ascii">
0.5 0.29999999999999999 0 0.54999999999999993 0.29999999999999999 0 0.54999999999999993 0.29999999999999999 0 0.59999999999999976 0.29999999999999999 0 0.59999999999999976 0.29999999999999999 0 0.6499999999999998 0.29999999999999999 0 0.6499999999999998 0.29999999999999999 0 0.69999999999999984 0.29999999999999999 0 0.69999999999999984 0.29999999999999999 0 0.74999999999999989 0.29999999999999999 0 0.74999999999999989 0.29999999999999999 0 0.79999999999999982 0.29999999999999999 0 0.79999999999999982 0.29999999999999999 0 0.84999999999999987 0.29999999999999999 0 0.84999999999999987 0.29999999999999999 0 0.89999999999999991 0.29999999999999999 0 0.89999999999999991 0.29999999999999999 0 0.94999999999999996 0.29999999999999999 0 0.94999999999999996 0.29999999999999999 0 1 0.29999999999999999 0 0.5 0.69999999999999996 0 0.54999999999999993 0.69999999999999996 0 0.54999999999999993 0.69999999999999996 0 0.59999999999999976 0.69999999999999996 0 0.59999999999999976 0.69999999999999996 0 0.6499999999999998 0.69999999999999996 0 0.6499999999999998 0.69999999999999996 0 0.69999999999999984 0.69999999999999996 0 0.69999999999999984 0.69999999999999996 0 0.74999999999999989 0.69999999999999996 0 0.74999999999999989 0.69999999999999996 0 0.79999999999999982 0.69999999999999996 0 0.79999999999999982 0.69999999999999996 0 0.84999999999999987 0.69999999999999996 0 0.84999999999999987 0.69999999999999996 0 0.89999999999999991 0.69999999999999996 0 0.89999999999999991 0.69999999999999996 0 0.94999999999999996 0.69999999999999996 0 0.94999999999999996 0.69999999999999996 0 1 0.69999999999999996 0 0.40076539126862748 0.34589349467022118 0 0.33277555741076909 0.36432196682010132 0 0.36575549820117997 0.31677992835137742 0 0.38083244760691543 0.38531983672244652 0 0.33277555741076909 0.36432196682010132 0 0.40076539126862748 0.34589349467022118 0 0.56836770495988642 0.3523062350852913 0 0.52289427570932567 0.3932284363388488 0 0.52752007115234678 0.33170632466418198 0 0.52752007115234678 0.33170632466418198 0 0.52289427570932567 0.3932284363388488 0 0.49077833859261139 0.35229981449445641 0 0.10000000000041601 1 0 0.053064897599294662 0.95186845269532028 0 0.10266856499240549 0.95548163909968886 0 0.099999999999814668 0 0 0.10266856499169109 0.044518360900210059 0 0.053064897599215843 0.048131547304697528 0 0.050000000000207989 1 0 0.053064897599294662 0.95186845269532028 0 0.10000000000041601 1 0 0.049999999999899652 0 0 0.099999999999814668 0 0 0.053064897599215843 0.048131547304697528 0 0.24999999999941211 0 0 0.29999999999926641 0 0 0.27499999999933927 0.060310814194988557 0 0.30000000000124832 1 0 0.25000000000104028 1 0 0.27609987656793722 0.94991445621608572 0 0.15720202157091859 0.60665697304410315 0 0.19914261668318661 0.62286739485272158 0 0.16500388252850301 0.66612077714085194 0 0.2236846579037573 0.67380363126050236 0 0.16500388252850301 0.66612077714085194 0 0.19914261668318661 0.62286739485272158 0 0.1247745017231483 0.27198077544791172 0 0.168349569971391 0.28054490850913671 0 0.14223753364722069 0.3341983344262433 0 0 0.75000000000034661 0 0 0.7000000000006934 0 0.049706944316475897 0.72477277076253799 0 0 0.30000000000124832 0 0 0.25000000000104028 0 0.049706944316556423 0.27522722923869108 0 0.59999999999999976 0.29999999999999999 0 0.61959173890754571 0.33832250091341232 0 0.56836770495988642 0.3523062350852913 0 0.5 0.69999999999999996 0 0.43323420005758778 0.6913544522562407 0 0.47913475093885149 0.66010775372412711 0 1 0.14999999999961891 0 0.95391631417672862 0.19584263333809451 0 0.93677536231883773 0.14999999999999089 0 1 0.84999999999982645 0 0.95391631417670719 0.89584263333814784 0 0.93677536231884972 0.85000000000000286 0 1 0.84999999999982645 0 0.93677536231884972 0.85000000000000286 0 0.95386563387742829 0.80414874155775029 0 1 0.14999999999961891 0 0.93677536231883773 0.14999999999999089 0 0.95386563387744361 0.1041487415577465 0 0.90416666666660628 0.9041666666666166 0 0.88088768115933802 0.84674609810493673 0 0.93677536231884972 0.85000000000000286 0 0.90416666666668166 0.20416666666667119 0 0.88088768115941807 0.14674609810479519 0 0.93677536231883773 0.14999999999999089 0 0.1247745017231483 0.27198077544791172 0 0.14223753364722069 0.3341983344262433 0 0.093851963071650835 0.30582068233324772 0 0.5 0.69999999999999996 0 0.45582236402875981 0.73896743678908217 0 0.43323420005758778 0.6913544522562407 0 0.55000000000173355 1 0 0.50000000000205869 1 0 0.52122150208832174 0.94089974453840242 0 0.49999999999869432 0 0 0.5499999999988151 0 0 0.52375890611712683 0.059318771819432882 0 0.54999999999999993 0.29999999999999999 0 0.59999999999999976 0.29999999999999999 0 0.56836770495988642 0.3523062350852913 0 0.50202631463681879 0.87892870825713787 0 0.44003836461056539 0.88093474584252718 0 0.45677673713123867 0.84253684404072415 0 0.33403534827021109 0.84402799729020661 0 0.35864759629805099 0.87963482415279515 0 0.30864387279288652 0.89906554525974958 0 0.53245488764484505 0.55078124999999989 0 0.47793794143994173 0.52940715638744962 0 0.53330375813596242 0.50827942741749099 0 0.82709327591102189 0.14937141670914489 0 0.81283102246527783 0.1881007222486438 0 0.77144070960558853 0.14311854477243749 0 0.82709327591091286 0.84937141670920724 0 0.81159157511211755 0.88795995483179491 0 0.76901770135486491 0.84293557325473656 0 0.77144070960558853 0.14311854477243749 0 0.81283102246527783 0.1881007222486438 0 0.76587607630038135 0.18880039518954719 0 0.76901770135486491 0.84293557325473656 0 0.81159157511211755 0.88795995483179491 0 0.76891166905518427 0.88835469571185499 0 0.33403534827021109 0.84402799729020661 0 0.30864387279288652 0.89906554525974958 0 0.29209212897034281 0.84715728365233667 0 0.57412547362576272 0.58273804879550706 0 0.5166924242153631 0.59825134841919447 0 0.53245488764484505 0.55078124999999989 0 0.50202631463681879 0.87892870825713787 0 0.47401147028110507 0.91529957330468115 0 0.44003836461056539 0.88093474584252718 0 0.5 0.69999999999999996 0 0.54999999999999993 0.69999999999999996 0 0.55363780716230748 0.74348740161571747 0 1 0.34999999999993492 0 0.95871855522754235 0.40006508612975411 0 0.95780851984364423 0.34215720972155339 0 1 0.64999999999986979 0 0.9578014258160763 0.65787212321113708 0 0.95867599106212187 0.60011091146651041 0 0.46666084890304671 0.57634471035397938 0 0.47793794143994173 0.52940715638744962 0 0.53245488764484505 0.55078124999999989 0 0.94999999999999996 0.29999999999999999 0 0.89898474358614167 0.25391965591104898 0 0.94399509803921056 0.24399509803922639 0 0.94999999999979179 1 0 0.89898474358632463 0.95391965591118966 0 0.94399509803919068 0.9439950980391687 0 0 0.65000000000104008 0 0.050069554451969707 0.61308520079857043 0 0.046634677244967337 0.671418230738282 0 0 0.35000000000145642 0 0.046389130980076937 0.32668781832131749 0 0.050583896093752537 0.38543522283434112 0 0.50202631463681879 0.87892870825713787 0 0.50627822638148745 0.8263979829520941 0 0.55899371797446828 0.85003102233514438 0 0.54782696902220018 0.79245182748204157 0 0.55899371797446828 0.85003102233514438 0 0.50627822638148745 0.8263979829520941 0 0.50945740445113552 0.75476055527778108 0 0.5 0.69999999999999996 0 0.55363780716230748 0.74348740161571747 0 0.84999999999965292 1 0 0.85170973911348691 0.93569607295217616 0 0.89898474358632463 0.95391965591118966 0 0.84999999999999987 0.29999999999999999 0 0.8517097391133297 0.2356960729520409 0 0.89898474358614167 0.25391965591104898 0 0.86956835336234861 0.571283299838105 0 0.82862096804812391 0.55037090955459045 0 0.86907294890112186 0.52008116128001669 0 0.49102375406324739 0.49123754822244059 0 0.53330375813596242 0.50827942741749099 0 0.47793794143994173 0.52940715638744962 0 0.57611405284611883 0.50165903596042916 0 0.61547661924074692 0.48539576058873962 0 0.62042975506801734 0.54295974692364424 0 0.71406021706547751 0.63292083137662503 0 0.67529834988829951 0.61613270668143583 0 0.71809016091162536 0.58185040402320831 0 0.65000000000104008 1 0 0.62065498684670595 0.95224934003983619 0 0.68015064798562208 0.95924320340003011 0 0.84999999999960507 0 0 0.899991664607802 0.045289349238254978 0 0.85491058998398861 0.060047533455626502 0 0.84999999999999987 0.69999999999999996 0 0.89999166460796554 0.74528934923809909 0 0.85491058998424563 0.76004753345552634 0 0.89999999999999991 0.29999999999999999 0 0.89898474358614167 0.25391965591104898 0 0.94999999999999996 0.29999999999999999 0 0.94999999999979179 1 0 0.89999999999958358 1 0 0.89898474358632463 0.95391965591118966 0 0.86411095495256451 0.42388805655111889 0 0.81308179852519835 0.39754945808726527 0 0.86844634540301924 0.38530937474099819 0 0.5 0.29999999999999999 0 0.49695729691142171 0.25014895411178018 0 0.54248833945060504 0.2520322959927106 0 0.86411095495256451 0.42388805655111889 0 0.81973119833356312 0.43505687159469048 0 0.81308179852519835 0.39754945808726527 0 0.67323294229744413 0.57556450033612505 0 0.71809016091162536 0.58185040402320831 0 0.67529834988829951 0.61613270668143583 0 0.6236733212988993 0.14864538214901801 0 0.68391457121233579 0.14440470121196541 0 0.64011864159029941 0.18789607982138171 0 0 0.050000000000207989 0 0.053064897599215843 0.048131547304697528 0 0.044310582753132287 0.101412518374475 0 0 0.94999999999979179 0 0.0443105827531413 0.89858748162559932 0 0.053064897599294662 0.95186845269532028 0 1 0.34999999999993492 0 1 0.39999999999978308 0 0.95871855522754235 0.40006508612975411 0 1 0.59999999999973963 0 1 0.64999999999986979 0 0.95867599106212187 0.60011091146651041 0 0 0.84999999999965292 0 0.065374659239661639 0.8551091961254178 0 0.0443105827531413 0.89858748162559932 0 0 0.15000000000062411 0 0.044310582753132287 0.101412518374475 0 0.065374659239632718 0.1448908038746782 0 0.16500388252850301 0.66612077714085194 0 0.1020579365089687 0.69352219419301997 0 0.1241190223511371 0.64391885572885044 0 0.14999999999970359 0 0 0.14618258501891079 0.062070108745602003 0 0.10266856499169109 0.044518360900210059 0 0.15000000000062411 1 0 0.10266856499240549 0.95548163909968886 0 0.14617343800780541 0.93808063414349496 0 0.7152569930854884 0.5237994455134295 0 0.67569444444444449 0.53500863336860327 0 0.69385896817107129 0.48377516041410151 0 0.6541250972820879 0.49999999999999989 0 0.62042975506801734 0.54295974692364424 0 0.61547661924074692 0.48539576058873962 0 0.94999999999999996 0.69999999999999996 0 0.94399509803918602 0.75600490196082126 0 0.89999166460796554 0.74528934923809909 0 0.94999999999986839 0 0 0.94399509803922566 0.056004901960802607 0 0.899991664607802 0.045289349238254978 0 0.6541250972820879 0.49999999999999989 0 0.69385896817107129 0.48377516041410151 0 0.67569444444444449 0.53500863336860327 0 0.82862096804812391 0.55037090955459045 0 0.81723410853263523 0.59419663659258926 0 0.77151014687832564 0.54436834383023036 0 0.7250000000005199 0.89375000000045834 0 0.66412543161245952 0.88015090885499059 0 0.68697391633157634 0.84450604838764298 0 0 0.94999999999979179 0 0 0.89999999999958358 0 0.0443105827531413 0.89858748162559932 0 0 0.10000000000041601 0 0 0.050000000000207989 0 0.044310582753132287 0.101412518374475 0 0.16500388252850301 0.66612077714085194 0 0.15332765547575641 0.71200081858233666 0 0.1020579365089687 0.69352219419301997 0 0.90299850604011456 0.79563452813489832 0 0.93677536231884972 0.85000000000000286 0 0.88088768115933802 0.84674609810493673 0 0.90299850604006393 0.09563452813493091 0 0.93677536231883773 0.14999999999999089 0 0.88088768115941807 0.14674609810479519 0 0.68391457121233579 0.14440470121196541 0 0.6865991819015953 0.189116534044597 0 0.64011864159029941 0.18789607982138171 0 0.085622222639554768 0.53333248912060549 0 0.1216098864341134 0.50637075089503902 0 0.1154888278694548 0.56733818459978413 0 0.21858834311891909 0.81980263716112767 0 0.22556077506376701 0.77837424984191617 0 0.26104540868854792 0.81401944968719064 0 0.81723410853263523 0.59419663659258926 0 0.77293540622714185 0.59448302402785813 0 0.77151014687832564 0.54436834383023036 0 0.1154888278694548 0.56733818459978413 0 0.1216098864341134 0.50637075089503902 0 0.14934928745814749 0.55042914607228977 0 0.1216098864341134 0.50637075089503902 0 0.068743045408989428 0.48853989837882689 0 0.113541300460994 0.46208784312094731 0 0.078358742472063481 0.43365249433908948 0 0.113541300460994 0.46208784312094731 0 0.068743045408989428 0.48853989837882689 0 0.83573492347052902 0.36590755630746369 0 0.81308179852519835 0.39754945808726527 0 0.78145581580700685 0.34881365920033602 0 0.57611405284611883 0.50165903596042916 0 0.62042975506801734 0.54295974692364424 0 0.57435499076887508 0.54267261987897775 0 0.86956835336234861 0.571283299838105 0 0.81723410853263523 0.59419663659258926 0 0.82862096804812391 0.55037090955459045 0 0.46666084890304671 0.57634471035397938 0 0.53245488764484505 0.55078124999999989 0 0.5166924242153631 0.59825134841919447 0 0.89999999999999991 0.69999999999999996 0 0.94999999999999996 0.69999999999999996 0 0.89999166460796554 0.74528934923809909 0 0.89999999999973679 0 0 0.94999999999986839 0 0 0.899991664607802 0.045289349238254978 0 0.84999999999960507 0 0 0.89999999999973679 0 0 0.899991664607802 0.045289349238254978 0 0.84999999999999987 0.69999999999999996 0 0.89999999999999991 0.69999999999999996 0 0.89999166460796554 0.74528934923809909 0 0.43545892161006339 0.61093128915313821 0 0.4089290844030305 0.58728915500154233 0 0.46666084890304671 0.57634471035397938 0 0.1650278706801647 0.38791388161335733 0 0.1117088112799664 0.38831403004970022 0 0.14223753364722069 0.3341983344262433 0 0.087545339447545459 0.35122518864182262 0 0.14223753364722069 0.3341983344262433 0 0.1117088112799664 0.38831403004970022 0 0.6916490518212759 0.75387992374886192 0 0.72501250972655151 0.74067302935308721 0 0.72500000000000064 0.7952620967744265 0 0.72501250972655151 0.74067302935308721 0 0.75841349681148107 0.75422312624214749 0 0.72500000000000064 0.7952620967744265 0 0.57412547362576272 0.58273804879550706 0 0.53245488764484505 0.55078124999999989 0 0.57435499076887508 0.54267261987897775 0 1 0.54999999999963112 0 0.95867599106212187 0.60011091146651041 0 0.93732437411268477 0.55911392101136159 0 1 0.44999999999963131 0 0.93814194660195893 0.44426664081746747 0 0.95871855522754235 0.40006508612975411 0 0.4089290844030305 0.58728915500154233 0 0.42644501560315817 0.54603747078095544 0 0.46666084890304671 0.57634471035397938 0 0.89999999999958358 1 0 0.84999999999965292 1 0 0.89898474358632463 0.95391965591118966 0 0.84999999999999987 0.29999999999999999 0 0.89898474358614167 0.25391965591104898 0 0.89999999999999991 0.29999999999999999 0 0.29999999999926641 0 0 0.32541448401678508 0.046215317981507749 0 0.27499999999933927 0.060310814194988557 0 0.30000000000124832 1 0 0.27609987656793722 0.94991445621608572 0 0.32544832635163229 0.95485394099568932 0 0.57412547362576272 0.58273804879550706 0 0.62042975506801734 0.54295974692364424 0 0.63065402604362242 0.59661356661633302 0 0.5 0.29999999999999999 0 0.54248833945060504 0.2520322959927106 0 0.54999999999999993 0.29999999999999999 0 0.67323294229744413 0.57556450033612505 0 0.62042975506801734 0.54295974692364424 0 0.67569444444444449 0.53500863336860327 0 0.6541250972820879 0.49999999999999989 0 0.67569444444444449 0.53500863336860327 0 0.62042975506801734 0.54295974692364424 0 1 0.14999999999961891 0 1 0.19999999999974799 0 0.95391631417672862 0.19584263333809451 0 1 0.84999999999982645 0 1 0.8999999999998336 0 0.95391631417670719 0.89584263333814784 0 1 0.7999999999998193 0 1 0.84999999999982645 0 0.95386563387742829 0.80414874155775029 0 1 0.099999999999753911 0 1 0.14999999999961891 0 0.95386563387744361 0.1041487415577465 0 0.4656888918609538 0.78493261229743638 0 0.50627822638148745 0.8263979829520941 0 0.45677673713123867 0.84253684404072415 0 0.6879972333610942 0.43038561374960838 0 0.72622533758026719 0.40265885511101601 0 0.73483647259922602 0.44789725365921768 0 0.67323294229744413 0.57556450033612505 0 0.67569444444444449 0.53500863336860327 0 0.71809016091162536 0.58185040402320831 0 0.7152569930854884 0.5237994455134295 0 0.71809016091162536 0.58185040402320831 0 0.67569444444444449 0.53500863336860327 0 0.65394964615507722 0.22666784374016369 0 0.59814117807200873 0.23398510860739519 0 0.64011864159029941 0.18789607982138171 0 0.55000000000173355 1 0 0.52122150208832174 0.94089974453840242 0 0.57382506491224949 0.9629411906298494 0 0.39801143831225599 0.16651381068160659 0 0.44288491854585582 0.14116182884956319 0 0.42905200079338551 0.19982395548231649 0 0.47357141910802508 0.1873585799078378 0 0.42905200079338551 0.19982395548231649 0 0.44288491854585582 0.14116182884956319 0 0.90594285160987287 0.4141265964174129 0 0.88594198078881503 0.46167788676578442 0 0.86411095495256451 0.42388805655111889 0 0.65507451745379841 0.92229208810758578 0 0.68015064798562208 0.95924320340003011 0 0.62065498684670595 0.95224934003983619 0 0.35312867752657662 0.084946736076730367 0 0.39591832466117061 0.056982757562006353 0 0.39823268594401579 0.1116623613130045 0 0.43698630808430822 0.080423614171545449 0 0.39823268594401579 0.1116623613130045 0 0.39591832466117061 0.056982757562006353 0 0.4367309254023824 0.92065556789053882 0 0.39641108128798319 0.94356127926187128 0 0.39767323751400468 0.89584229130535065 0 0.35752321586431363 0.9185439911803448 0 0.39767323751400468 0.89584229130535065 0 0.39641108128798319 0.94356127926187128 0 0.77354604466818633 0.40378688774472771 0 0.77972660463949339 0.45529290596363098 0 0.73483647259922602 0.44789725365921768 0 0.5499999999988151 0 0 0.57396793757665954 0.037011367187645222 0 0.52375890611712683 0.059318771819432882 0 0.64753070846764316 0.77332939069435502 0 0.60294066490120068 0.80851322453934582 0 0.59636844454254345 0.75937156204589151 0 0.49102375406324739 0.49123754822244059 0 0.48858720058566618 0.43964267759203868 0 0.53823865529665704 0.45873898050322898 0 0.28307294598219601 0.50789252727458634 0 0.29110487519241501 0.56588143995431495 0 0.25115337790845271 0.54719303014923271 0 0.79680861578988083 0.92656778056766709 0 0.81159157511211755 0.88795995483179491 0 0.85170973911348691 0.93569607295217616 0 0.79680861578956375 0.22656778056752541 0 0.81283102246527783 0.1881007222486438 0 0.8517097391133297 0.2356960729520409 0 0.57412547362576272 0.58273804879550706 0 0.57435499076887508 0.54267261987897775 0 0.62042975506801734 0.54295974692364424 0 0.93814194660195893 0.44426664081746747 0 0.88594198078881503 0.46167788676578442 0 0.90594285160987287 0.4141265964174129 0 0.7152569930854884 0.5237994455134295 0 0.73947346780852752 0.49062440112282169 0 0.77151014687832564 0.54436834383023036 0 0 0.7000000000006934 0 0.046634677244967337 0.671418230738282 0 0.049706944316475897 0.72477277076253799 0 0 0.30000000000124832 0 0.049706944316556423 0.27522722923869108 0 0.046389130980076937 0.32668781832131749 0 0.59814117807200873 0.23398510860739519 0 0.59443395090188023 0.18455690917515069 0 0.64011864159029941 0.18789607982138171 0 0.21858834311891909 0.81980263716112767 0 0.26104540868854792 0.81401944968719064 0 0.2401283238295133 0.85648409884788523 0 0.39536230704883951 0.84069429572832477 0 0.45677673713123867 0.84253684404072415 0 0.44003836461056539 0.88093474584252718 0 0.086179601630648681 0.64647209519980475 0 0.050069554451969707 0.61308520079857043 0 0.1024350934457823 0.60772393977513839 0 0.077693244765132896 0.56932317963405099 0 0.1024350934457823 0.60772393977513839 0 0.050069554451969707 0.61308520079857043 0 0.078358742472063481 0.43365249433908948 0 0.050583896093752537 0.38543522283434112 0 0.1117088112799664 0.38831403004970022 0 0.087545339447545459 0.35122518864182262 0 0.1117088112799664 0.38831403004970022 0 0.050583896093752537 0.38543522283434112 0 0.33403534827021109 0.84402799729020661 0 0.35642984951668422 0.80994399665655703 0 0.39536230704883951 0.84069429572832477 0 0.28307294598219601 0.50789252727458634 0 0.33190227185843768 0.52715113583864037 0 0.29110487519241501 0.56588143995431495 0 0.2236846579037573 0.67380363126050236 0 0.19068556247388771 0.71028988922845504 0 0.16500388252850301 0.66612077714085194 0 0.26104540868854792 0.81401944968719064 0 0.22556077506376701 0.77837424984191617 0 0.2792923945214143 0.77665808831789485 0 0.38244435121258652 0.51653317813019495 0 0.37272913873093971 0.56192925302619479 0 0.33190227185843768 0.52715113583864037 0 0.25195515620380449 0.25883339815888678 0 0.29132859388405002 0.27203693976649962 0 0.24432083401701241 0.3006253385567515 0 0.29348325746214782 0.31350119524708198 0 0.24432083401701241 0.3006253385567515 0 0.29132859388405002 0.27203693976649962 0 0 0.89999999999958358 0 0 0.84999999999965292 0 0.0443105827531413 0.89858748162559932 0 0 0.15000000000062411 0 0 0.10000000000041601 0 0.044310582753132287 0.101412518374475 0 0.59999999999999976 0.69999999999999996 0 0.59636844454254345 0.75937156204589151 0 0.55363780716230748 0.74348740161571747 0 0.1650278706801647 0.38791388161335733 0 0.22033343844674469 0.36963382230740238 0 0.191953871957803 0.42546416763755879 0 0.52289427570932567 0.3932284363388488 0 0.46655310992796922 0.39650496622958609 0 0.49077833859261139 0.35229981449445641 0 0.91696753777131557 0.497780560203536 0 0.88594198078881503 0.46167788676578442 0 0.93814194660195893 0.44426664081746747 0 0.24999999999941211 0 0 0.27499999999933927 0.060310814194988557 0 0.22668068146512929 0.045875643423131329 0 0.25000000000104028 1 0 0.22850979588452081 0.95594428570238643 0 0.27609987656793722 0.94991445621608572 0 0.77846603114747959 0.49850927265137401 0 0.77151014687832564 0.54436834383023036 0 0.73947346780852752 0.49062440112282169 0 0.27499999999933927 0.060310814194988557 0 0.27474541102162192 0.11822029332053539 0 0.24218496799700481 0.089025544070598317 0 0.27270076654418179 0.87751467830216623 0 0.29209212897034281 0.84715728365233667 0 0.30864387279288652 0.89906554525974958 0 0.3096713403101819 0.085471541595262421 0 0.27474541102162192 0.11822029332053539 0 0.27499999999933927 0.060310814194988557 0 0.17933913398461551 0.2350063570234002 0 0.18124454140915969 0.18790916706335251 0 0.224700362040408 0.22206622194729711 0 0.18269480424590959 0.75905448272264375 0 0.22556077506376701 0.77837424984191617 0 0.17777405986036951 0.81832336108265358 0 0.35864759629805099 0.87963482415279515 0 0.33403534827021109 0.84402799729020661 0 0.39536230704883951 0.84069429572832477 0 0.77354604466818633 0.40378688774472771 0 0.73483647259922602 0.44789725365921768 0 0.72622533758026719 0.40265885511101601 0 0.80185942888539485 0.77452061303608133 0 0.85491058998424563 0.76004753345552634 0 0.84725310900444062 0.80779732082917555 0 0.80185942888501827 0.074520613036224564 0 0.85491058998398861 0.060047533455626502 0 0.84725310900442086 0.10779732082922661 0 0.086179601630648681 0.64647209519980475 0 0.046634677244967337 0.671418230738282 0 0.050069554451969707 0.61308520079857043 0 0.087545339447545459 0.35122518864182262 0 0.050583896093752537 0.38543522283434112 0 0.046389130980076937 0.32668781832131749 0 0 0.75000000000034661 0 0.049706944316475897 0.72477277076253799 0 0.04408157711937423 0.7728941757575627 0 0 0.25000000000104028 0 0.044081577119474857 0.2271058242433576 0 0.049706944316556423 0.27522722923869108 0 0.52289427570932567 0.3932284363388488 0 0.56836770495988642 0.3523062350852913 0 0.57744073070774993 0.41535148636609359 0 0.6084546825910605 0.37989672713932537 0 0.57744073070774993 0.41535148636609359 0 0.56836770495988642 0.3523062350852913 0 0.61343887413683884 0.856862479058357 0 0.55899371797446828 0.85003102233514438 0 0.60294066490120068 0.80851322453934582 0 0.54782696902220018 0.79245182748204157 0 0.60294066490120068 0.80851322453934582 0 0.55899371797446828 0.85003102233514438 0 0.40326160981139969 0.73346192995102844 0 0.36622285152418499 0.69092437780804039 0 0.43323420005758778 0.6913544522562407 0 0.52289427570932567 0.3932284363388488 0 0.48858720058566618 0.43964267759203868 0 0.46655310992796922 0.39650496622958609 0 0.15720202157091859 0.60665697304410315 0 0.1154888278694548 0.56733818459978413 0 0.14934928745814749 0.55042914607228977 0 0.6879972333610942 0.43038561374960838 0 0.73483647259922602 0.44789725365921768 0 0.69385896817107129 0.48377516041410151 0 0.7250000000005199 0.89375000000045834 0 0.68987011941058407 0.92105047536677087 0 0.66412543161245952 0.88015090885499059 0 0.83573492347052902 0.36590755630746369 0 0.78145581580700685 0.34881365920033602 0 0.82500000000000062 0.33010209762754811 0 0.82862096804812391 0.55037090955459045 0 0.81441713509985358 0.51161854125224959 0 0.86907294890112186 0.52008116128001669 0 0.19670163708476801 0.31472518408333222 0 0.14223753364722069 0.3341983344262433 0 0.168349569971391 0.28054490850913671 0 0.50202631463681879 0.87892870825713787 0 0.45677673713123867 0.84253684404072415 0 0.50627822638148745 0.8263979829520941 0 0.099999999999814668 0 0 0.14999999999970359 0 0 0.10266856499169109 0.044518360900210059 0 0.15000000000062411 1 0 0.10000000000041601 1 0 0.10266856499240549 0.95548163909968886 0 0.67323294229744413 0.57556450033612505 0 0.63065402604362242 0.59661356661633302 0 0.62042975506801734 0.54295974692364424 0 0.083105206071467416 0.20007701332709979 0 0.13737030665753211 0.20313708640667491 0 0.095326043202144745 0.24554465089224409 0 0.083105206071452636 0.79992298667296435 0 0.090953281884486245 0.7564451946902494 0 0.1382744753146134 0.79650574229207483 0 0.50000000000205869 1 0 0.47135117303824892 0.95556877749289892 0 0.52122150208832174 0.94089974453840242 0 0.49999999999869432 0 0 0.52375890611712683 0.059318771819432882 0 0.47040171442036788 0.044141676406503738 0 0.4656888918609538 0.78493261229743638 0 0.45582236402875981 0.73896743678908217 0 0.50945740445113552 0.75476055527778108 0 0.5 0.69999999999999996 0 0.50945740445113552 0.75476055527778108 0 0.45582236402875981 0.73896743678908217 0 0.55306006949600994 0.20198184231352201 0 0.56202748619534593 0.15054058349222879 0 0.59443395090188023 0.18455690917515069 0 0.6236733212988993 0.14864538214901801 0 0.59443395090188023 0.18455690917515069 0 0.56202748619534593 0.15054058349222879 0 0.57412547362576272 0.58273804879550706 0 0.5498280205245758 0.6290146943450976 0 0.5166924242153631 0.59825134841919447 0 0.91696753777131557 0.497780560203536 0 0.93814194660195893 0.44426664081746747 0 0.96228564064454991 0.48206450662049471 0 0.15720202157091859 0.60665697304410315 0 0.16500388252850301 0.66612077714085194 0 0.1241190223511371 0.64391885572885044 0 0.44288491854585582 0.14116182884956319 0 0.47881186583059909 0.093591717165689425 0 0.48466639505193998 0.1421439844745814 0 1 0.54999999999963112 0 0.93732437411268477 0.55911392101136159 0 0.95631871884947484 0.51827533208233789 0 0.57724883562309992 0.92155686857100794 0 0.57382506491224949 0.9629411906298494 0 0.52122150208832174 0.94089974453840242 0 0.85170973911348691 0.93569607295217616 0 0.81159157511211755 0.88795995483179491 0 0.85600844944837662 0.88483418979512773 0 0.8517097391133297 0.2356960729520409 0 0.81283102246527783 0.1881007222486438 0 0.85600844944842547 0.1848341897950983 0 0.27866744612395528 0.38416094670951489 0 0.29124338931648802 0.43334555462578611 0 0.24049127783545701 0.41270748208749802 0 0.6084546825910605 0.37989672713932537 0 0.56836770495988642 0.3523062350852913 0 0.61959173890754571 0.33832250091341232 0 0.20050006573841939 0.53248514016039872 0 0.25115337790845271 0.54719303014923271 0 0.22549374774072969 0.58452645269293457 0 0.26573297623774761 0.59828298563722948 0 0.22549374774072969 0.58452645269293457 0 0.25115337790845271 0.54719303014923271 0 0.26104540868854792 0.81401944968719064 0 0.29209212897034281 0.84715728365233667 0 0.2401283238295133 0.85648409884788523 0 0.6236733212988993 0.14864538214901801 0 0.65290632656860115 0.11434202593454081 0 0.68391457121233579 0.14440470121196541 0 0.19901705110390991 0.9175543425573498 0 0.19741632902693801 0.86755867406447229 0 0.24536017905392571 0.90704567837671446 0 0.72500000000000064 0.7952620967744265 0 0.76901770135486491 0.84293557325473656 0 0.72863726579783861 0.85390518901155588 0 0.72500000000000064 0.7952620967744265 0 0.72863726579783861 0.85390518901155588 0 0.68697391633157634 0.84450604838764298 0 0.7250000000005199 0.89375000000045834 0 0.68697391633157634 0.84450604838764298 0 0.72863726579783861 0.85390518901155588 0 0.72525833953073282 0.1032114801687094 0 0.77144070960558853 0.14311854477243749 0 0.72634814642510737 0.16106886917518889 0 0.72525833953073282 0.1032114801687094 0 0.72634814642510737 0.16106886917518889 0 0.68391457121233579 0.14440470121196541 0 0.36622285152418499 0.69092437780804039 0 0.3977710372045391 0.65868194622830212 0 0.43323420005758778 0.6913544522562407 0 0 0.65000000000104008 0 0 0.60000000000138687 0 0.050069554451969707 0.61308520079857043 0 0 0.40000000000166441 0 0 0.35000000000145642 0 0.050583896093752537 0.38543522283434112 0 0.22033343844674469 0.36963382230740238 0 0.24049127783545701 0.41270748208749802 0 0.191953871957803 0.42546416763755879 0 0.5 0.29999999999999999 0 0.4604742573284204 0.27846934318264788 0 0.49695729691142171 0.25014895411178018 0 0.19741632902693801 0.86755867406447229 0 0.2401283238295133 0.85648409884788523 0 0.24536017905392571 0.90704567837671446 0 0 0.50000000000205869 0 0.068743045408989428 0.48853989837882689 0 0.044576108720083309 0.53509043209532614 0 0.15000000000062411 1 0 0.14617343800780541 0.93808063414349496 0 0.18474005699953849 0.96231585248064622 0 0.14999999999970359 0 0 0.184418230509967 0.038773194583122873 0 0.14618258501891079 0.062070108745602003 0 0.57667858002728545 0.078486105337742612 0 0.52375890611712683 0.059318771819432882 0 0.57396793757665954 0.037011367187645222 0 0.113541300460994 0.46208784312094731 0 0.078358742472063481 0.43365249433908948 0 0.13773355295499351 0.42497777642586831 0 0.77354604466818633 0.40378688774472771 0 0.78145581580700685 0.34881365920033602 0 0.81308179852519835 0.39754945808726527 0 0.38244435121258652 0.51653317813019495 0 0.33190227185843768 0.52715113583864037 0 0.35024835142131061 0.48654922671676981 0 0.64753070846764316 0.77332939069435502 0 0.65005442820240822 0.82644988530054031 0 0.60294066490120068 0.80851322453934582 0 0.15720202157091859 0.60665697304410315 0 0.1024350934457823 0.60772393977513839 0 0.1154888278694548 0.56733818459978413 0 0.90416666666660628 0.9041666666666166 0 0.85600844944837662 0.88483418979512773 0 0.88088768115933802 0.84674609810493673 0 0.90416666666668166 0.20416666666667119 0 0.85600844944842547 0.1848341897950983 0 0.88088768115941807 0.14674609810479519 0 0.078358742472063481 0.43365249433908948 0 0.1117088112799664 0.38831403004970022 0 0.13773355295499351 0.42497777642586831 0 0.38244435121258652 0.51653317813019495 0 0.3908716102680424 0.47010282357248828 0 0.43507373378304309 0.49699695397193322 0 0.90299850604011456 0.79563452813489832 0 0.95386563387742829 0.80414874155775029 0 0.93677536231884972 0.85000000000000286 0 0.90416666666660628 0.9041666666666166 0 0.93677536231884972 0.85000000000000286 0 0.95391631417670719 0.89584263333814784 0 0.90299850604006393 0.09563452813493091 0 0.95386563387744361 0.1041487415577465 0 0.93677536231883773 0.14999999999999089 0 0.90416666666668166 0.20416666666667119 0 0.93677536231883773 0.14999999999999089 0 0.95391631417672862 0.19584263333809451 0 0.39536230704883951 0.84069429572832477 0 0.44003836461056539 0.88093474584252718 0 0.39767323751400468 0.89584229130535065 0 0.51076801031701946 0.1202837388510348 0 0.52375890611712683 0.059318771819432882 0 0.54979595918804436 0.1060565713905809 0 0.57667858002728545 0.078486105337742612 0 0.54979595918804436 0.1060565713905809 0 0.52375890611712683 0.059318771819432882 0 0.57724883562309992 0.92155686857100794 0 0.52122150208832174 0.94089974453840242 0 0.54783390826260769 0.89287767010860219 0 0.50202631463681879 0.87892870825713787 0 0.54783390826260769 0.89287767010860219 0 0.52122150208832174 0.94089974453840242 0 0.087545339447545459 0.35122518864182262 0 0.093851963071650835 0.30582068233324772 0 0.14223753364722069 0.3341983344262433 0 0.54999999999999993 0.69999999999999996 0 0.59999999999999976 0.69999999999999996 0 0.55363780716230748 0.74348740161571747 0 0.083105206071452636 0.79992298667296435 0 0.1074251789111534 0.83564394292147814 0 0.065374659239661639 0.8551091961254178 0 0.083105206071467416 0.20007701332709979 0 0.065374659239632718 0.1448908038746782 0 0.106902708054812 0.16453234188234539 0 0.52289427570932567 0.3932284363388488 0 0.53823865529665704 0.45873898050322898 0 0.48858720058566618 0.43964267759203868 0 0.13737030665753211 0.20313708640667491 0 0.14377654328998779 0.2442024734791064 0 0.095326043202144745 0.24554465089224409 0 0.1382744753146134 0.79650574229207483 0 0.090953281884486245 0.7564451946902494 0 0.14335651144331049 0.75565258250209677 0 0.27270076654418179 0.87751467830216623 0 0.30864387279288652 0.89906554525974958 0 0.24536017905392571 0.90704567837671446 0 0.27609987656793722 0.94991445621608572 0 0.24536017905392571 0.90704567837671446 0 0.30864387279288652 0.89906554525974958 0 0.90299850604011456 0.79563452813489832 0 0.84725310900444062 0.80779732082917555 0 0.85491058998424563 0.76004753345552634 0 0.90299850604006393 0.09563452813493091 0 0.84725310900442086 0.10779732082922661 0 0.85491058998398861 0.060047533455626502 0 1 0.54999999999963112 0 1 0.59999999999973963 0 0.95867599106212187 0.60011091146651041 0 1 0.39999999999978308 0 1 0.44999999999963131 0 0.95871855522754235 0.40006508612975411 0 0.28040350263641872 0.23054717217092141 0 0.25195515620380449 0.25883339815888678 0 0.224700362040408 0.22206622194729711 0 0.84999999999999987 0.29999999999999999 0 0.87430060258887643 0.34056085888204451 0 0.82500000000000062 0.33010209762754811 0 0.84999999999999987 0.69999999999999996 0 0.82457059160610424 0.66831947184359608 0 0.87712158428786946 0.65709029563313581 0 0.86956835336234861 0.571283299838105 0 0.87159648282691515 0.61285406320581504 0 0.81723410853263523 0.59419663659258926 0 0.43698630808430822 0.080423614171545449 0 0.47881186583059909 0.093591717165689425 0 0.44288491854585582 0.14116182884956319 0 1 0.44999999999963131 0 0.96228564064454991 0.48206450662049471 0 0.93814194660195893 0.44426664081746747 0 0.35752321586431363 0.9185439911803448 0 0.30864387279288652 0.89906554525974958 0 0.35864759629805099 0.87963482415279515 0 0.29124338931648802 0.43334555462578611 0 0.25982634974572738 0.46097799597715272 0 0.24049127783545701 0.41270748208749802 0 0.51076801031701946 0.1202837388510348 0 0.56202748619534593 0.15054058349222879 0 0.51729576145820033 0.1683240575987815 0 0.55306006949600994 0.20198184231352201 0 0.51729576145820033 0.1683240575987815 0 0.56202748619534593 0.15054058349222879 0 0.26429849586623999 0.19346700179430079 0 0.28040350263641872 0.23054717217092141 0 0.224700362040408 0.22206622194729711 0 0.51076801031701946 0.1202837388510348 0 0.48466639505193998 0.1421439844745814 0 0.47881186583059909 0.093591717165689425 0 0.2185883431182947 0.18019736283949719 0 0.26429849586623999 0.19346700179430079 0 0.224700362040408 0.22206622194729711 0 0.18269480424590959 0.75905448272264375 0 0.2248999640082178 0.72584299459689172 0 0.22556077506376701 0.77837424984191617 0 0.51076801031701946 0.1202837388510348 0 0.47881186583059909 0.093591717165689425 0 0.52375890611712683 0.059318771819432882 0 0.50202631463681879 0.87892870825713787 0 0.52122150208832174 0.94089974453840242 0 0.47401147028110507 0.91529957330468115 0 0 0.84999999999965292 0 0.038512288486097702 0.8155852717111195 0 0.065374659239661639 0.8551091961254178 0 0 0.15000000000062411 0 0.065374659239632718 0.1448908038746782 0 0.038512288486115001 0.1844147282893184 0 0.2185883431182947 0.18019736283949719 0 0.224700362040408 0.22206622194729711 0 0.18124454140915969 0.18790916706335251 0 0.21858834311891909 0.81980263716112767 0 0.17777405986036951 0.81832336108265358 0 0.22556077506376701 0.77837424984191617 0 0.1215415378367805 0.72939333680004137 0 0.1020579365089687 0.69352219419301997 0 0.15332765547575641 0.71200081858233666 0 0.49695729691142171 0.25014895411178018 0 0.50760557329222289 0.20700468884612061 0 0.54248833945060504 0.2520322959927106 0 0.15720202157091859 0.60665697304410315 0 0.14934928745814749 0.55042914607228977 0 0.18381867841758909 0.57774125163628387 0 0.90416666666660628 0.9041666666666166 0 0.85170973911348691 0.93569607295217616 0 0.85600844944837662 0.88483418979512773 0 0.90416666666668166 0.20416666666667119 0 0.8517097391133297 0.2356960729520409 0 0.85600844944842547 0.1848341897950983 0 0.17933913398461551 0.2350063570234002 0 0.13737030665753211 0.20313708640667491 0 0.18124454140915969 0.18790916706335251 0 0.18269480424590959 0.75905448272264375 0 0.17777405986036951 0.81832336108265358 0 0.1382744753146134 0.79650574229207483 0 0.1216098864341134 0.50637075089503902 0 0.15801167086041079 0.46008690540259539 0 0.16618607197337229 0.50652878253548905 0 0.50760557329222289 0.20700468884612061 0 0.55306006949600994 0.20198184231352201 0 0.54248833945060504 0.2520322959927106 0 0.75000000000034661 1 0 0.7000000000006934 1 0 0.7250000000005199 0.94981617647078953 0 0.69999999999999984 0.29999999999999999 0 0.72500000000000064 0.2498161764706 0 0.74999999999999989 0.29999999999999999 0 0.72525833953073282 0.1032114801687094 0 0.68391457121233579 0.14440470121196541 0 0.68330259535470161 0.10038702501083881 0 0.43249999999999988 0.43937499999999979 0 0.46655310992796922 0.39650496622958609 0 0.48858720058566618 0.43964267759203868 0 0.19901705110390991 0.9175543425573498 0 0.14617343800780541 0.93808063414349496 0 0.16206583317966519 0.89685560785156404 0 0.19922788606653311 0.085920220746880993 0 0.16141998738593399 0.10404039647458049 0 0.14618258501891079 0.062070108745602003 0 0.31378396441836959 0.70157213313026345 0 0.26439878998046262 0.7048065392091396 0 0.27820712747429932 0.65530134213254643 0 0.1216098864341134 0.50637075089503902 0 0.113541300460994 0.46208784312094731 0 0.15801167086041079 0.46008690540259539 0 0.6084546825910605 0.37989672713932537 0 0.65481233915350323 0.35652751921065562 0 0.63912439215427275 0.41063340167983359 0 0.19901705110390991 0.9175543425573498 0 0.18474005699953849 0.96231585248064622 0 0.14617343800780541 0.93808063414349496 0 0.19922788606653311 0.085920220746880993 0 0.14618258501891079 0.062070108745602003 0 0.184418230509967 0.038773194583122873 0 0.38244435121258652 0.51653317813019495 0 0.35024835142131061 0.48654922671676981 0 0.3908716102680424 0.47010282357248828 0 0.82709327591102189 0.14937141670914489 0 0.77144070960558853 0.14311854477243749 0 0.80076557130237269 0.1154587552654202 0 0.82709327591091286 0.84937141670920724 0 0.76901770135486491 0.84293557325473656 0 0.80041942726660109 0.81543261647703358 0 0.43698630808430822 0.080423614171545449 0 0.44288491854585582 0.14116182884956319 0 0.39823268594401579 0.1116623613130045 0 0.39801143831225599 0.16651381068160659 0 0.39823268594401579 0.1116623613130045 0 0.44288491854585582 0.14116182884956319 0 0.36575549820117997 0.31677992835137742 0 0.3786248352540974 0.27082301512024259 0 0.41914690343363781 0.30688979866601612 0 0.42377727103934271 0.25099357235810238 0 0.41914690343363781 0.30688979866601612 0 0.3786248352540974 0.27082301512024259 0 0.049706944316475897 0.72477277076253799 0 0.1020579365089687 0.69352219419301997 0 0.090953281884486245 0.7564451946902494 0 0.1215415378367805 0.72939333680004137 0 0.090953281884486245 0.7564451946902494 0 0.1020579365089687 0.69352219419301997 0 0.1247745017231483 0.27198077544791172 0 0.093851963071650835 0.30582068233324772 0 0.095326043202144745 0.24554465089224409 0 0.049706944316556423 0.27522722923869108 0 0.095326043202144745 0.24554465089224409 0 0.093851963071650835 0.30582068233324772 0 0.77354604466818633 0.40378688774472771 0 0.81973119833356312 0.43505687159469048 0 0.77972660463949339 0.45529290596363098 0 0.43249999999999988 0.43937499999999979 0 0.43507373378304309 0.49699695397193322 0 0.3908716102680424 0.47010282357248828 0 0.26573297623774761 0.59828298563722948 0 0.2459498854893499 0.63248470766216769 0 0.22549374774072969 0.58452645269293457 0 0.72500000000000064 0.7952620967744265 0 0.77094201086366854 0.79647480515688507 0 0.76901770135486491 0.84293557325473656 0 0.72525833953073282 0.1032114801687094 0 0.76878382444651716 0.097147941686331368 0 0.77144070960558853 0.14311854477243749 0 0.72500000000000064 0.7952620967744265 0 0.68697391633157634 0.84450604838764298 0 0.68024162096458085 0.79868546898116533 0 0.31378396441836959 0.70157213313026345 0 0.29904318922293632 0.74132814928635593 0 0.26439878998046262 0.7048065392091396 0 0.31378396441836959 0.70157213313026345 0 0.35415581127540569 0.73730480045900215 0 0.29904318922293632 0.74132814928635593 0 0.61343887413683884 0.856862479058357 0 0.65005442820240822 0.82644988530054031 0 0.66412543161245952 0.88015090885499059 0 0.68697391633157634 0.84450604838764298 0 0.66412543161245952 0.88015090885499059 0 0.65005442820240822 0.82644988530054031 0 0.083411279318375747 0.91030024466934134 0 0.065374659239661639 0.8551091961254178 0 0.10562472963403439 0.87143394428979881 0 0.083411279318303222 0.089699755330707398 0 0.1053400320299198 0.12877248826361379 0 0.065374659239632718 0.1448908038746782 0 0.55306006949600994 0.20198184231352201 0 0.59443395090188023 0.18455690917515069 0 0.59814117807200873 0.23398510860739519 0 0.84999999999999987 0.29999999999999999 0 0.89999999999999991 0.29999999999999999 0 0.87430060258887643 0.34056085888204451 0 0.84999999999999987 0.69999999999999996 0 0.87712158428786946 0.65709029563313581 0 0.89999999999999991 0.69999999999999996 0 0.34258405725730701 0.4444034294386992 0 0.3908716102680424 0.47010282357248828 0 0.35024835142131061 0.48654922671676981 0 0.26573297623774761 0.59828298563722948 0 0.31502927232353312 0.6134992213375432 0 0.27820712747429932 0.65530134213254643 0 0.91696753777131557 0.497780560203536 0 0.86907294890112186 0.52008116128001669 0 0.88594198078881503 0.46167788676578442 0 0.84723782639812573 0.48638347960178252 0 0.88594198078881503 0.46167788676578442 0 0.86907294890112186 0.52008116128001669 0 0.7152569930854884 0.5237994455134295 0 0.77151014687832564 0.54436834383023036 0 0.71809016091162536 0.58185040402320831 0 0.90416666666660628 0.9041666666666166 0 0.89898474358632463 0.95391965591118966 0 0.85170973911348691 0.93569607295217616 0 0.90416666666668166 0.20416666666667119 0 0.89898474358614167 0.25391965591104898 0 0.8517097391133297 0.2356960729520409 0 0.91750694127107502 0.36982372220068471 0 0.95780851984364423 0.34215720972155339 0 0.95871855522754235 0.40006508612975411 0 0.91750694127105259 0.63017627779935648 0 0.95867599106212187 0.60011091146651041 0 0.9578014258160763 0.65787212321113708 0 0.90299850604011456 0.79563452813489832 0 0.88088768115933802 0.84674609810493673 0 0.84725310900444062 0.80779732082917555 0 0.90299850604006393 0.09563452813493091 0 0.88088768115941807 0.14674609810479519 0 0.84725310900442086 0.10779732082922661 0 0.1216098864341134 0.50637075089503902 0 0.16618607197337229 0.50652878253548905 0 0.14934928745814749 0.55042914607228977 0 0.20050006573841939 0.53248514016039872 0 0.14934928745814749 0.55042914607228977 0 0.16618607197337229 0.50652878253548905 0 0.80185942888539485 0.77452061303608133 0 0.84725310900444062 0.80779732082917555 0 0.80041942726660109 0.81543261647703358 0 0.80185942888501827 0.074520613036224564 0 0.84725310900442086 0.10779732082922661 0 0.80076557130237269 0.1154587552654202 0 0.083105206071452636 0.79992298667296435 0 0.065374659239661639 0.8551091961254178 0 0.038512288486097702 0.8155852717111195 0 0.083105206071467416 0.20007701332709979 0 0.038512288486115001 0.1844147282893184 0 0.065374659239632718 0.1448908038746782 0 0.54782696902220018 0.79245182748204157 0 0.59636844454254345 0.75937156204589151 0 0.60294066490120068 0.80851322453934582 0 0.083411279318375747 0.91030024466934134 0 0.0443105827531413 0.89858748162559932 0 0.065374659239661639 0.8551091961254178 0 0.083411279318303222 0.089699755330707398 0 0.065374659239632718 0.1448908038746782 0 0.044310582753132287 0.101412518374475 0 0.84999999999965292 1 0 0.81486180804382891 0.96321394949790495 0 0.85170973911348691 0.93569607295217616 0 0.84999999999999987 0.29999999999999999 0 0.81486180804364938 0.26321394949780091 0 0.8517097391133297 0.2356960729520409 0 0.4656888918609538 0.78493261229743638 0 0.45677673713123867 0.84253684404072415 0 0.42609163930740518 0.80361684430568059 0 0.39536230704883951 0.84069429572832477 0 0.42609163930740518 0.80361684430568059 0 0.45677673713123867 0.84253684404072415 0 0.6236733212988993 0.14864538214901801 0 0.56202748619534593 0.15054058349222879 0 0.58516465772821369 0.11653801664834119 0 0.57412547362576272 0.58273804879550706 0 0.63065402604362242 0.59661356661633302 0 0.5991018319127801 0.62925360607495295 0 0.61343887413683884 0.856862479058357 0 0.5832743223239254 0.88483152652961872 0 0.55899371797446828 0.85003102233514438 0 0.50202631463681879 0.87892870825713787 0 0.55899371797446828 0.85003102233514438 0 0.54783390826260769 0.89287767010860219 0 0.51076801031701946 0.1202837388510348 0 0.54979595918804436 0.1060565713905809 0 0.56202748619534593 0.15054058349222879 0 0.55306006949600994 0.20198184231352201 0 0.59814117807200873 0.23398510860739519 0 0.54248833945060504 0.2520322959927106 0 0.83573492347052902 0.36590755630746369 0 0.82500000000000062 0.33010209762754811 0 0.87430060258887643 0.34056085888204451 0 0.83758014339878906 0.63222013025741819 0 0.87712158428786946 0.65709029563313581 0 0.82457059160610424 0.66831947184359608 0 0.49102375406324739 0.49123754822244059 0 0.53823865529665704 0.45873898050322898 0 0.53330375813596242 0.50827942741749099 0 0.52289427570932567 0.3932284363388488 0 0.57744073070774993 0.41535148636609359 0 0.53823865529665704 0.45873898050322898 0 0.4089290844030305 0.58728915500154233 0 0.37272913873093971 0.56192925302619479 0 0.42644501560315817 0.54603747078095544 0 0.49695729691142171 0.25014895411178018 0 0.4604742573284204 0.27846934318264788 0 0.46429753744194407 0.22870891180733599 0 0.90299850604011456 0.79563452813489832 0 0.85491058998424563 0.76004753345552634 0 0.89999166460796554 0.74528934923809909 0 0.90299850604006393 0.09563452813493091 0 0.85491058998398861 0.060047533455626502 0 0.899991664607802 0.045289349238254978 0 0.38244435121258652 0.51653317813019495 0 0.42644501560315817 0.54603747078095544 0 0.37272913873093971 0.56192925302619479 0 0.71406021706547751 0.63292083137662503 0 0.71809016091162536 0.58185040402320831 0 0.74994237037456724 0.62775548192980357 0 0.84723782639812573 0.48638347960178252 0 0.86907294890112186 0.52008116128001669 0 0.81441713509985358 0.51161854125224959 0 0.33122374654748771 0.57588941099433744 0 0.33190227185843768 0.52715113583864037 0 0.37272913873093971 0.56192925302619479 0 0.086179601630648681 0.64647209519980475 0 0.1241190223511371 0.64391885572885044 0 0.1020579365089687 0.69352219419301997 0 0.59999999999894682 0 0 0.64999999999907843 0 0 0.61940220174112337 0.047251958781050582 0 0.18269480424590959 0.75905448272264375 0 0.14335651144331049 0.75565258250209677 0 0.15332765547575641 0.71200081858233666 0 0.22549374774072969 0.58452645269293457 0 0.2459498854893499 0.63248470766216769 0 0.19914261668318661 0.62286739485272158 0 0.38244435121258652 0.51653317813019495 0 0.43507373378304309 0.49699695397193322 0 0.42644501560315817 0.54603747078095544 0 0.65000000000104008 1 0 0.60000000000138687 1 0 0.62065498684670595 0.95224934003983619 0 0.078358742472063481 0.43365249433908948 0 0.068743045408989428 0.48853989837882689 0 0.033550201249889847 0.46247875832467239 0 0.2236846579037573 0.67380363126050236 0 0.27820712747429932 0.65530134213254643 0 0.26439878998046262 0.7048065392091396 0 0.6879972333610942 0.43038561374960838 0 0.68128176404677243 0.38629093627004979 0 0.72622533758026719 0.40265885511101601 0 0.72525833953073282 0.1032114801687094 0 0.7010294155333181 0.056779085686491267 0 0.7527966693318906 0.053051678021508272 0 0.18269480424590959 0.75905448272264375 0 0.15332765547575641 0.71200081858233666 0 0.19068556247388771 0.71028988922845504 0 0.1216098864341134 0.50637075089503902 0 0.085622222639554768 0.53333248912060549 0 0.068743045408989428 0.48853989837882689 0 0.25676291524611189 0.7436741304886243 0 0.26439878998046262 0.7048065392091396 0 0.29904318922293632 0.74132814928635593 0 0.65481233915350323 0.35652751921065562 0 0.68128176404677243 0.38629093627004979 0 0.63912439215427275 0.41063340167983359 0 0.83573492347052902 0.36590755630746369 0 0.86844634540301924 0.38530937474099819 0 0.81308179852519835 0.39754945808726527 0 0.27270076654418179 0.87751467830216623 0 0.2401283238295133 0.85648409884788523 0 0.29209212897034281 0.84715728365233667 0 0.84999999999999987 0.69999999999999996 0 0.85491058998424563 0.76004753345552634 0 0.81864958914779962 0.73589050177899629 0 0.84999999999960507 0 0 0.85491058998398861 0.060047533455626502 0 0.81864958914740749 0.035890501779055867 0 0.18381867841758909 0.57774125163628387 0 0.19914261668318661 0.62286739485272158 0 0.15720202157091859 0.60665697304410315 0 0.22549374774072969 0.58452645269293457 0 0.19914261668318661 0.62286739485272158 0 0.18381867841758909 0.57774125163628387 0 0.79680861578988083 0.92656778056766709 0 0.85170973911348691 0.93569607295217616 0 0.81486180804382891 0.96321394949790495 0 0.79680861578956375 0.22656778056752541 0 0.8517097391133297 0.2356960729520409 0 0.81486180804364938 0.26321394949780091 0 0.20050006573841939 0.53248514016039872 0 0.23975172658309729 0.49475499200540818 0 0.25115337790845271 0.54719303014923271 0 0.28307294598219601 0.50789252727458634 0 0.25115337790845271 0.54719303014923271 0 0.23975172658309729 0.49475499200540818 0 0.20050006573841939 0.53248514016039872 0 0.18381867841758909 0.57774125163628387 0 0.14934928745814749 0.55042914607228977 0 0.19922788606653311 0.085920220746880993 0 0.22985637510995899 0.1298347970200906 0 0.18652628422869419 0.14162325200928061 0 0.33758650185219202 0.23837101504325639 0 0.38831533174504851 0.2189834941785925 0 0.3786248352540974 0.27082301512024259 0 0.42377727103934271 0.25099357235810238 0 0.3786248352540974 0.27082301512024259 0 0.38831533174504851 0.2189834941785925 0 0.19922788606653311 0.085920220746880993 0 0.18652628422869419 0.14162325200928061 0 0.16141998738593399 0.10404039647458049 0 0.54782696902220018 0.79245182748204157 0 0.55363780716230748 0.74348740161571747 0 0.59636844454254345 0.75937156204589151 0 0.82709327591091286 0.84937141670920724 0 0.88088768115933802 0.84674609810493673 0 0.85600844944837662 0.88483418979512773 0 0.82709327591102189 0.14937141670914489 0 0.88088768115941807 0.14674609810479519 0 0.85600844944842547 0.1848341897950983 0 0.27866744612395528 0.38416094670951489 0 0.22033343844674469 0.36963382230740238 0 0.25966125648670141 0.34351016742083729 0 0 0.50000000000205869 0 0.033550201249889847 0.46247875832467239 0 0.068743045408989428 0.48853989837882689 0 0.31378396441836959 0.70157213313026345 0 0.36622285152418499 0.69092437780804039 0 0.35415581127540569 0.73730480045900215 0 0.77293540622714185 0.59448302402785813 0 0.71809016091162536 0.58185040402320831 0 0.77151014687832564 0.54436834383023036 0 0.7152569930854884 0.5237994455134295 0 0.69385896817107129 0.48377516041410151 0 0.73947346780852752 0.49062440112282169 0 0.15801167086041079 0.46008690540259539 0 0.191953871957803 0.42546416763755879 0 0.19604738184454831 0.47787523520405789 0 0.57667858002728545 0.078486105337742612 0 0.61940220174112337 0.047251958781050582 0 0.61956000905586006 0.1043312481793135 0 0.65408113592120842 0.073941773121567966 0 0.61956000905586006 0.1043312481793135 0 0.61940220174112337 0.047251958781050582 0 0 0.55000000000173355 0 0 0.50000000000205869 0 0.044576108720083309 0.53509043209532614 0 0.65507451745379841 0.92229208810758578 0 0.62065498684670595 0.95224934003983619 0 0.61885627562261258 0.90282959257498208 0 0.57724883562309992 0.92155686857100794 0 0.61885627562261258 0.90282959257498208 0 0.62065498684670595 0.95224934003983619 0 0.91750694127107502 0.36982372220068471 0 0.86844634540301924 0.38530937474099819 0 0.87430060258887643 0.34056085888204451 0 0.91750694127105259 0.63017627779935648 0 0.87712158428786946 0.65709029563313581 0 0.87159648282691515 0.61285406320581504 0 0.33123028043633618 0.77629643437932982 0 0.29904318922293632 0.74132814928635593 0 0.35415581127540569 0.73730480045900215 0 0.86411095495256451 0.42388805655111889 0 0.84925632466077294 0.45359738909549091 0 0.81973119833356312 0.43505687159469048 0 0.43846182030517877 0.64845797726506715 0 0.47913475093885149 0.66010775372412711 0 0.43323420005758778 0.6913544522562407 0 0.18269480424590959 0.75905448272264375 0 0.19068556247388771 0.71028988922845504 0 0.2248999640082178 0.72584299459689172 0 0.39536230704883951 0.84069429572832477 0 0.38586766253264881 0.78219501014812498 0 0.42609163930740518 0.80361684430568059 0 0.59999999999999976 0.69999999999999996 0 0.63221990677827677 0.73442891067859706 0 0.59636844454254345 0.75937156204589151 0 0.27866744612395528 0.38416094670951489 0 0.24049127783545701 0.41270748208749802 0 0.22033343844674469 0.36963382230740238 0 0.82709327591091286 0.84937141670920724 0 0.84725310900444062 0.80779732082917555 0 0.88088768115933802 0.84674609810493673 0 0.82709327591102189 0.14937141670914489 0 0.84725310900442086 0.10779732082922661 0 0.88088768115941807 0.14674609810479519 0 0.1650278706801647 0.38791388161335733 0 0.18434624290945251 0.35208838264196463 0 0.22033343844674469 0.36963382230740238 0 0.4409427642593301 0.35743108089689513 0 0.49077833859261139 0.35229981449445641 0 0.46655310992796922 0.39650496622958609 0 0.80185942888539485 0.77452061303608133 0 0.81864958914779962 0.73589050177899629 0 0.85491058998424563 0.76004753345552634 0 0.80185942888501827 0.074520613036224564 0 0.81864958914740749 0.035890501779055867 0 0.85491058998398861 0.060047533455626502 0 0.29999999999926641 0 0 0.34999999999912063 0 0 0.32541448401678508 0.046215317981507749 0 0.35000000000145642 1 0 0.30000000000124832 1 0 0.32544832635163229 0.95485394099568932 0 0.4656888918609538 0.78493261229743638 0 0.50731287292894423 0.78963574450233831 0 0.50627822638148745 0.8263979829520941 0 0.2185883431182947 0.18019736283949719 0 0.25557216766470708 0.15874861286892261 0 0.26429849586623999 0.19346700179430079 0 1 0.29999999999999999 0 1 0.34999999999993492 0 0.95780851984364423 0.34215720972155339 0 1 0.29999999999999999 0 0.95780851984364423 0.34215720972155339 0 0.94999999999999996 0.29999999999999999 0 1 0.69999999999999996 0 0.94999999999999996 0.69999999999999996 0 0.9578014258160763 0.65787212321113708 0 1 0.69999999999999996 0 0.9578014258160763 0.65787212321113708 0 1 0.64999999999986979 0 0.91750694127107502 0.36982372220068471 0 0.90594285160987287 0.4141265964174129 0 0.86844634540301924 0.38530937474099819 0 0.91750694127105259 0.63017627779935648 0 0.87159648282691515 0.61285406320581504 0 0.91143117093204207 0.58709913730335972 0 0.74999999999999989 0.69999999999999996 0 0.7750489929959945 0.66593931409600093 0 0.79999999999999982 0.69999999999999996 0 0.74999999999999989 0.29999999999999999 0 0.79999999999999982 0.29999999999999999 0 0.78145581580700685 0.34881365920033602 0 0.54999999999999993 0.69999999999999996 0 0.57484956128872922 0.66573805030881994 0 0.59999999999999976 0.69999999999999996 0 0.90299850604011456 0.79563452813489832 0 0.94399509803918602 0.75600490196082126 0 0.95386563387742829 0.80414874155775029 0 0.90416666666660628 0.9041666666666166 0 0.95391631417670719 0.89584263333814784 0 0.94399509803919068 0.9439950980391687 0 0.90299850604006393 0.09563452813493091 0 0.94399509803922566 0.056004901960802607 0 0.95386563387744361 0.1041487415577465 0 0.90416666666668166 0.20416666666667119 0 0.95391631417672862 0.19584263333809451 0 0.94399509803921056 0.24399509803922639 0 0.22278230690790279 0.44824268025881547 0 0.19604738184454831 0.47787523520405789 0 0.191953871957803 0.42546416763755879 0 0.90299850604011456 0.79563452813489832 0 0.89999166460796554 0.74528934923809909 0 0.94399509803918602 0.75600490196082126 0 0.90299850604006393 0.09563452813493091 0 0.899991664607802 0.045289349238254978 0 0.94399509803922566 0.056004901960802607 0 0.49102375406324739 0.49123754822244059 0 0.47793794143994173 0.52940715638744962 0 0.43507373378304309 0.49699695397193322 0 0.90416666666660628 0.9041666666666166 0 0.94399509803919068 0.9439950980391687 0 0.89898474358632463 0.95391965591118966 0 0.90416666666668166 0.20416666666667119 0 0.94399509803921056 0.24399509803922639 0 0.89898474358614167 0.25391965591104898 0 0.65394964615507722 0.22666784374016369 0 0.62657463266645097 0.26524202571255862 0 0.59814117807200873 0.23398510860739519 0 0.6084546825910605 0.37989672713932537 0 0.63912439215427275 0.41063340167983359 0 0.57744073070774993 0.41535148636609359 0 0.61209567303293111 0.44669033081290321 0 0.57744073070774993 0.41535148636609359 0 0.63912439215427275 0.41063340167983359 0 0.25676291524611189 0.7436741304886243 0 0.22556077506376701 0.77837424984191617 0 0.2248999640082178 0.72584299459689172 0 0.61343887413683884 0.856862479058357 0 0.60294066490120068 0.80851322453934582 0 0.65005442820240822 0.82644988530054031 0 0.64999999999907843 0 0 0.66369801598854572 0.036327466368102787 0 0.61940220174112337 0.047251958781050582 0 0.40326160981139969 0.73346192995102844 0 0.38586766253264881 0.78219501014812498 0 0.35415581127540569 0.73730480045900215 0 0.33123028043633618 0.77629643437932982 0 0.35415581127540569 0.73730480045900215 0 0.38586766253264881 0.78219501014812498 0 0.26573297623774761 0.59828298563722948 0 0.29110487519241501 0.56588143995431495 0 0.31502927232353312 0.6134992213375432 0 0.77846603114747959 0.49850927265137401 0 0.81441713509985358 0.51161854125224959 0 0.77151014687832564 0.54436834383023036 0 0.82862096804812391 0.55037090955459045 0 0.77151014687832564 0.54436834383023036 0 0.81441713509985358 0.51161854125224959 0 0.50000000000205869 1 0 0.45000000000187229 1 0 0.47135117303824892 0.95556877749289892 0 0.44999999999882923 0 0 0.49999999999869432 0 0 0.47040171442036788 0.044141676406503738 0 0 0.7000000000006934 0 0 0.65000000000104008 0 0.046634677244967337 0.671418230738282 0 0 0.35000000000145642 0 0 0.30000000000124832 0 0.046389130980076937 0.32668781832131749 0 0.31378396441836959 0.70157213313026345 0 0.27820712747429932 0.65530134213254643 0 0.32263089806001177 0.66003674931826484 0 0.33122374654748771 0.57588941099433744 0 0.31502927232353312 0.6134992213375432 0 0.29110487519241501 0.56588143995431495 0 0.26573297623774761 0.59828298563722948 0 0.27820712747429932 0.65530134213254643 0 0.2459498854893499 0.63248470766216769 0 0.14474682429600511 0.85524784522713515 0 0.16206583317966519 0.89685560785156404 0 0.1241151115713819 0.9045666525468371 0 0.14332333627550789 0.14578431753966009 0 0.12372429750337779 0.095814237875728972 0 0.16141998738593399 0.10404039647458049 0 0.64753070846764316 0.77332939069435502 0 0.59636844454254345 0.75937156204589151 0 0.63221990677827677 0.73442891067859706 0 0.14474682429600511 0.85524784522713515 0 0.1241151115713819 0.9045666525468371 0 0.10562472963403439 0.87143394428979881 0 0.14332333627550789 0.14578431753966009 0 0.1053400320299198 0.12877248826361379 0 0.12372429750337779 0.095814237875728972 0 0.77354604466818633 0.40378688774472771 0 0.81308179852519835 0.39754945808726527 0 0.81973119833356312 0.43505687159469048 0 0.54782696902220018 0.79245182748204157 0 0.50945740445113552 0.75476055527778108 0 0.55363780716230748 0.74348740161571747 0 0.2236846579037573 0.67380363126050236 0 0.2459498854893499 0.63248470766216769 0 0.27820712747429932 0.65530134213254643 0 0.77293540622714185 0.59448302402785813 0 0.74994237037456724 0.62775548192980357 0 0.71809016091162536 0.58185040402320831 0 0 0.79999999999999982 0 0 0.75000000000034661 0 0.04408157711937423 0.7728941757575627 0 0 0.25000000000104028 0 0 0.20000000000083221 0 0.044081577119474857 0.2271058242433576 0 0.19999999999955789 0 0 0.24999999999941211 0 0 0.22668068146512929 0.045875643423131329 0 0.25000000000104028 1 0 0.20000000000083221 1 0 0.22850979588452081 0.95594428570238643 0 0.47357141910802508 0.1873585799078378 0 0.44288491854585582 0.14116182884956319 0 0.48466639505193998 0.1421439844745814 0 0.59999999999999976 0.29999999999999999 0 0.5794309697024993 0.27124795968204829 0 0.62657463266645097 0.26524202571255862 0 0.43249999999999988 0.43937499999999979 0 0.42161023666869668 0.39493916313643851 0 0.46655310992796922 0.39650496622958609 0 0.31068898841644388 0.47541502461811092 0 0.33190227185843768 0.52715113583864037 0 0.28307294598219601 0.50789252727458634 0 0.35024835142131061 0.48654922671676981 0 0.33190227185843768 0.52715113583864037 0 0.31068898841644388 0.47541502461811092 0 0.35864735590330371 0.63903383440414463 0 0.36622285152418499 0.69092437780804039 0 0.32263089806001177 0.66003674931826484 0 0.31378396441836959 0.70157213313026345 0 0.32263089806001177 0.66003674931826484 0 0.36622285152418499 0.69092437780804039 0 0.86956835336234861 0.571283299838105 0 0.90900154012161016 0.53607784105648792 0 0.91143117093204207 0.58709913730335972 0 0.6499999999999998 0.29999999999999999 0 0.65481233915350323 0.35652751921065562 0 0.61959173890754571 0.33832250091341232 0 0.4409427642593301 0.35743108089689513 0 0.46226845272279993 0.31901800744800313 0 0.49077833859261139 0.35229981449445641 0 0.5 0.29999999999999999 0 0.49077833859261139 0.35229981449445641 0 0.46226845272279993 0.31901800744800313 0 0.14999999999970359 0 0 0.19999999999955789 0 0 0.184418230509967 0.038773194583122873 0 0.20000000000083221 1 0 0.15000000000062411 1 0 0.18474005699953849 0.96231585248064622 0 1 0.49999999999950101 0 1 0.54999999999963112 0 0.95631871884947484 0.51827533208233789 0 0.38586766253264881 0.78219501014812498 0 0.42676259796334498 0.76772545931379299 0 0.42609163930740518 0.80361684430568059 0 0.20050006573841939 0.53248514016039872 0 0.22549374774072969 0.58452645269293457 0 0.18381867841758909 0.57774125163628387 0 0.065374659239661639 0.8551091961254178 0 0.1074251789111534 0.83564394292147814 0 0.10562472963403439 0.87143394428979881 0 0.065374659239632718 0.1448908038746782 0 0.1053400320299198 0.12877248826361379 0 0.106902708054812 0.16453234188234539 0 0.1650278706801647 0.38791388161335733 0 0.14223753364722069 0.3341983344262433 0 0.18434624290945251 0.35208838264196463 0 0.43249999999999988 0.43937499999999979 0 0.46111841286828259 0.46690301029591341 0 0.43507373378304309 0.49699695397193322 0 0.83758014339878906 0.63222013025741819 0 0.81723410853263523 0.59419663659258926 0 0.87159648282691515 0.61285406320581504 0 0.19670163708476801 0.31472518408333222 0 0.18434624290945251 0.35208838264196463 0 0.14223753364722069 0.3341983344262433 0 0.75000000000034661 1 0 0.7250000000005199 0.94981617647078953 0 0.770759834363826 0.95919399014344442 0 0.74999999999999989 0.29999999999999999 0 0.72500000000000064 0.2498161764706 0 0.77075983436335049 0.25919399014334171 0 0.69999999999999984 0.29999999999999999 0 0.67933712972090698 0.25920070958121938 0 0.72500000000000064 0.2498161764706 0 0.57611405284611883 0.50165903596042916 0 0.53330375813596242 0.50827942741749099 0 0.53823865529665704 0.45873898050322898 0 0.6499999999999998 0.29999999999999999 0 0.68887083591306764 0.33632058575757479 0 0.65481233915350323 0.35652751921065562 0 0.27866744612395528 0.38416094670951489 0 0.33277555741076909 0.36432196682010132 0 0.31778888742534622 0.40581751814196781 0 0.49102375406324739 0.49123754822244059 0 0.43507373378304309 0.49699695397193322 0 0.46111841286828259 0.46690301029591341 0 0.94999999999999996 0.69999999999999996 0 0.97166519676947294 0.73337114490064459 0 0.94399509803918602 0.75600490196082126 0 0.94999999999986839 0 0 0.97166519676946894 0.033371144900598393 0 0.94399509803922566 0.056004901960802607 0 0.94999999999999996 0.29999999999999999 0 0.94399509803921056 0.24399509803922639 0 0.97166519676951801 0.26662885509932011 0 0.94999999999979179 1 0 0.94399509803919068 0.9439950980391687 0 0.97166519676946206 0.96662885509935492 0 0.34258405725730701 0.4444034294386992 0 0.29124338931648802 0.43334555462578611 0 0.31778888742534622 0.40581751814196781 0 0.27866744612395528 0.38416094670951489 0 0.31778888742534622 0.40581751814196781 0 0.29124338931648802 0.43334555462578611 0 0.36575549820117997 0.31677992835137742 0 0.33277555741076909 0.36432196682010132 0 0.32752639306529541 0.32610012995269699 0 0.35752321586431363 0.9185439911803448 0 0.32544832635163229 0.95485394099568932 0 0.30864387279288652 0.89906554525974958 0 0.27609987656793722 0.94991445621608572 0 0.30864387279288652 0.89906554525974958 0 0.32544832635163229 0.95485394099568932 0 0.33123028043633618 0.77629643437932982 0 0.30857225866488791 0.81101973481716805 0 0.2792923945214143 0.77665808831789485 0 0.33758650185219202 0.23837101504325639 0 0.29132859388405002 0.27203693976649962 0 0.28040350263641872 0.23054717217092141 0 0.4409427642593301 0.35743108089689513 0 0.41914690343363781 0.30688979866601612 0 0.46226845272279993 0.31901800744800313 0 0.14332333627550789 0.14578431753966009 0 0.13737030665753211 0.20313708640667491 0 0.106902708054812 0.16453234188234539 0 0.083105206071467416 0.20007701332709979 0 0.106902708054812 0.16453234188234539 0 0.13737030665753211 0.20313708640667491 0 0.083105206071452636 0.79992298667296435 0 0.1382744753146134 0.79650574229207483 0 0.1074251789111534 0.83564394292147814 0 0.14474682429600511 0.85524784522713515 0 0.1074251789111534 0.83564394292147814 0 0.1382744753146134 0.79650574229207483 0 0.65408113592120842 0.073941773121567966 0 0.7010294155333181 0.056779085686491267 0 0.68330259535470161 0.10038702501083881 0 0.72525833953073282 0.1032114801687094 0 0.68330259535470161 0.10038702501083881 0 0.7010294155333181 0.056779085686491267 0 0.049706944316475897 0.72477277076253799 0 0.046634677244967337 0.671418230738282 0 0.1020579365089687 0.69352219419301997 0 0.086179601630648681 0.64647209519980475 0 0.1020579365089687 0.69352219419301997 0 0.046634677244967337 0.671418230738282 0 0.087545339447545459 0.35122518864182262 0 0.046389130980076937 0.32668781832131749 0 0.093851963071650835 0.30582068233324772 0 0.049706944316556423 0.27522722923869108 0 0.093851963071650835 0.30582068233324772 0 0.046389130980076937 0.32668781832131749 0 0.82709327591091286 0.84937141670920724 0 0.80041942726660109 0.81543261647703358 0 0.84725310900444062 0.80779732082917555 0 0.82709327591102189 0.14937141670914489 0 0.80076557130237269 0.1154587552654202 0 0.84725310900442086 0.10779732082922661 0 0.17933913398461551 0.2350063570234002 0 0.14377654328998779 0.2442024734791064 0 0.13737030665753211 0.20313708640667491 0 0.18269480424590959 0.75905448272264375 0 0.1382744753146134 0.79650574229207483 0 0.14335651144331049 0.75565258250209677 0 0.33758650185219202 0.23837101504325639 0 0.3786248352540974 0.27082301512024259 0 0.33402499257867951 0.28911035184473982 0 0.14332333627550789 0.14578431753966009 0 0.18124454140915969 0.18790916706335251 0 0.13737030665753211 0.20313708640667491 0 0.14474682429600511 0.85524784522713515 0 0.1382744753146134 0.79650574229207483 0 0.17777405986036951 0.81832336108265358 0 0.5 0.29999999999999999 0 0.52752007115234678 0.33170632466418198 0 0.49077833859261139 0.35229981449445641 0 0.27866744612395528 0.38416094670951489 0 0.29644548887253103 0.34914008784168082 0 0.33277555741076909 0.36432196682010132 0 0 0.84999999999965292 0 0 0.79999999999999982 0 0.038512288486097702 0.8155852717111195 0 0 0.20000000000083221 0 0 0.15000000000062411 0 0.038512288486115001 0.1844147282893184 0 0.40326160981139969 0.73346192995102844 0 0.35415581127540569 0.73730480045900215 0 0.36622285152418499 0.69092437780804039 0 0.91696753777131557 0.497780560203536 0 0.96228564064454991 0.48206450662049471 0 0.95631871884947484 0.51827533208233789 0 0.33758650185219202 0.23837101504325639 0 0.31255190597181792 0.19850845631528771 0 0.3572130504031617 0.1874703368446563 0 0.59814117807200873 0.23398510860739519 0 0.62657463266645097 0.26524202571255862 0 0.5794309697024993 0.27124795968204829 0 0.34258405725730701 0.4444034294386992 0 0.31068898841644388 0.47541502461811092 0 0.29124338931648802 0.43334555462578611 0 0.38083244760691543 0.38531983672244652 0 0.35221190152536241 0.40457127605439203 0 0.33277555741076909 0.36432196682010132 0 0.083411279318375747 0.91030024466934134 0 0.10266856499240549 0.95548163909968886 0 0.053064897599294662 0.95186845269532028 0 0.083411279318303222 0.089699755330707398 0 0.053064897599215843 0.048131547304697528 0 0.10266856499169109 0.044518360900210059 0 0.42377727103934271 0.25099357235810238 0 0.4604742573284204 0.27846934318264788 0 0.41914690343363781 0.30688979866601612 0 0.28307294598219601 0.50789252727458634 0 0.25982634974572738 0.46097799597715272 0 0.31068898841644388 0.47541502461811092 0 0.29348325746214782 0.31350119524708198 0 0.29132859388405002 0.27203693976649962 0 0.33402499257867951 0.28911035184473982 0 0.35312867752657662 0.084946736076730367 0 0.39823268594401579 0.1116623613130045 0 0.36246644853392812 0.1399454205365751 0 0.7000000000006934 1 0 0.68015064798562208 0.95924320340003011 0 0.7250000000005199 0.94981617647078953 0 0.42377727103934271 0.25099357235810238 0 0.38831533174504851 0.2189834941785925 0 0.42905200079338551 0.19982395548231649 0 0.53823865529665704 0.45873898050322898 0 0.57744073070774993 0.41535148636609359 0 0.57975577671020095 0.46172033326338591 0 0.33758650185219202 0.23837101504325639 0 0.3572130504031617 0.1874703368446563 0 0.38831533174504851 0.2189834941785925 0 0.29124338931648802 0.43334555462578611 0 0.31068898841644388 0.47541502461811092 0 0.25982634974572738 0.46097799597715272 0 0.6084546825910605 0.37989672713932537 0 0.61959173890754571 0.33832250091341232 0 0.65481233915350323 0.35652751921065562 0 0.40326160981139969 0.73346192995102844 0 0.43323420005758778 0.6913544522562407 0 0.45582236402875981 0.73896743678908217 0 0.33758650185219202 0.23837101504325639 0 0.28040350263641872 0.23054717217092141 0 0.31255190597181792 0.19850845631528771 0 0.79999999999999982 1 0 0.75000000000034661 1 0 0.770759834363826 0.95919399014344442 0 0.74999999999999989 0.29999999999999999 0 0.77075983436335049 0.25919399014334171 0 0.79999999999999982 0.29999999999999999 0 0.6499999999999998 0.29999999999999999 0 0.67933712972090698 0.25920070958121938 0 0.69999999999999984 0.29999999999999999 0 0.39536230704883951 0.84069429572832477 0 0.39767323751400468 0.89584229130535065 0 0.35864759629805099 0.87963482415279515 0 0.54999999999999993 0.69999999999999996 0 0.52584555706968406 0.66664215091846768 0 0.57484956128872922 0.66573805030881994 0 0.35312867752657662 0.084946736076730367 0 0.32541448401678508 0.046215317981507749 0 0.3615861437013822 0.03582617922508851 0 0.35752321586431363 0.9185439911803448 0 0.36184234618600131 0.96443954459096326 0 0.32544832635163229 0.95485394099568932 0 0.35312867752657662 0.084946736076730367 0 0.3615861437013822 0.03582617922508851 0 0.39591832466117061 0.056982757562006353 0 0.35752321586431363 0.9185439911803448 0 0.39641108128798319 0.94356127926187128 0 0.36184234618600131 0.96443954459096326 0 0.083411279318303222 0.089699755330707398 0 0.044310582753132287 0.101412518374475 0 0.053064897599215843 0.048131547304697528 0 0.083411279318375747 0.91030024466934134 0 0.053064897599294662 0.95186845269532028 0 0.0443105827531413 0.89858748162559932 0 0.38083244760691543 0.38531983672244652 0 0.40076539126862748 0.34589349467022118 0 0.42161023666869668 0.39493916313643851 0 0.4409427642593301 0.35743108089689513 0 0.42161023666869668 0.39493916313643851 0 0.40076539126862748 0.34589349467022118 0 0.79999999999999982 0.29999999999999999 0 0.82500000000000062 0.33010209762754811 0 0.78145581580700685 0.34881365920033602 0 0.79999999999999982 0.69999999999999996 0 0.7750489929959945 0.66593931409600093 0 0.82457059160610424 0.66831947184359608 0 0.59999999999999976 0.69999999999999996 0 0.57484956128872922 0.66573805030881994 0 0.62460753523532009 0.66851202781000296 0 0.74999999999999989 0.69999999999999996 0 0.72500000000000064 0.67022701834392062 0 0.7750489929959945 0.66593931409600093 0 0.74999999999999989 0.29999999999999999 0 0.78145581580700685 0.34881365920033602 0 0.73090396928863699 0.33699297293167962 0 0.33758650185219202 0.23837101504325639 0 0.33402499257867951 0.28911035184473982 0 0.29132859388405002 0.27203693976649962 0 0.36575549820117997 0.31677992835137742 0 0.41914690343363781 0.30688979866601612 0 0.40076539126862748 0.34589349467022118 0 0.4409427642593301 0.35743108089689513 0 0.40076539126862748 0.34589349467022118 0 0.41914690343363781 0.30688979866601612 0 0.34258405725730701 0.4444034294386992 0 0.38707855792647411 0.42299362914874578 0 0.3908716102680424 0.47010282357248828 0 0.7000000000006934 1 0 0.65000000000104008 1 0 0.68015064798562208 0.95924320340003011 0 0.49102375406324739 0.49123754822244059 0 0.46111841286828259 0.46690301029591341 0 0.48858720058566618 0.43964267759203868 0 0.4656888918609538 0.78493261229743638 0 0.42676259796334498 0.76772545931379299 0 0.45582236402875981 0.73896743678908217 0 0.40326160981139969 0.73346192995102844 0 0.45582236402875981 0.73896743678908217 0 0.42676259796334498 0.76772545931379299 0 0.59999999999999976 0.29999999999999999 0 0.62657463266645097 0.26524202571255862 0 0.6499999999999998 0.29999999999999999 0 0.40000000000166441 1 0 0.36184234618600131 0.96443954459096326 0 0.39641108128798319 0.94356127926187128 0 0.3999999999989749 0 0 0.39591832466117061 0.056982757562006353 0 0.3615861437013822 0.03582617922508851 0 0.43249999999999988 0.43937499999999979 0 0.48858720058566618 0.43964267759203868 0 0.46111841286828259 0.46690301029591341 0 0.7250000000005199 0.89375000000045834 0 0.7250000000005199 0.94981617647078953 0 0.68987011941058407 0.92105047536677087 0 0.7250000000005199 0.89375000000045834 0 0.75729602384198635 0.92353652857884294 0 0.7250000000005199 0.94981617647078953 0 0.72500000000001008 0.19776155966387679 0 0.75668890529066124 0.2244279804069782 0 0.72500000000000064 0.2498161764706 0 0.72500000000001008 0.19776155966387679 0 0.72500000000000064 0.2498161764706 0 0.69397719155551807 0.2245125647000914 0 0.79999999999999982 0.29999999999999999 0 0.81486180804364938 0.26321394949780091 0 0.84999999999999987 0.29999999999999999 0 0.84999999999965292 1 0 0.79999999999999982 1 0 0.81486180804382891 0.96321394949790495 0 0.1247745017231483 0.27198077544791172 0 0.095326043202144745 0.24554465089224409 0 0.14377654328998779 0.2442024734791064 0 0.1215415378367805 0.72939333680004137 0 0.14335651144331049 0.75565258250209677 0 0.090953281884486245 0.7564451946902494 0 0.72500000000001008 0.19776155966387679 0 0.72634814642510737 0.16106886917518889 0 0.76587607630038135 0.18880039518954719 0 0.72500000000001008 0.19776155966387679 0 0.6865991819015953 0.189116534044597 0 0.72634814642510737 0.16106886917518889 0 0.77144070960558853 0.14311854477243749 0 0.76587607630038135 0.18880039518954719 0 0.72634814642510737 0.16106886917518889 0 0.68391457121233579 0.14440470121196541 0 0.72634814642510737 0.16106886917518889 0 0.6865991819015953 0.189116534044597 0 0.7250000000005199 0.89375000000045834 0 0.72863726579783861 0.85390518901155588 0 0.76891166905518427 0.88835469571185499 0 0.76901770135486491 0.84293557325473656 0 0.76891166905518427 0.88835469571185499 0 0.72863726579783861 0.85390518901155588 0 0 0.20000000000083221 0 0.038512288486115001 0.1844147282893184 0 0.044081577119474857 0.2271058242433576 0 0 0.79999999999999982 0 0.04408157711937423 0.7728941757575627 0 0.038512288486097702 0.8155852717111195 0 0.52375890611712683 0.059318771819432882 0 0.47881186583059909 0.093591717165689425 0 0.47040171442036788 0.044141676406503738 0 0.52122150208832174 0.94089974453840242 0 0.47135117303824892 0.95556877749289892 0 0.47401147028110507 0.91529957330468115 0 0.27474541102162192 0.11822029332053539 0 0.3096713403101819 0.085471541595262421 0 0.32215584939770009 0.1218492143506909 0 0.22278230690790279 0.44824268025881547 0 0.24049127783545701 0.41270748208749802 0 0.25982634974572738 0.46097799597715272 0 0.93732437411268477 0.55911392101136159 0 0.91143117093204207 0.58709913730335972 0 0.90900154012161016 0.53607784105648792 0 0.19901705110390991 0.9175543425573498 0 0.24536017905392571 0.90704567837671446 0 0.22850979588452081 0.95594428570238643 0 0.27609987656793722 0.94991445621608572 0 0.22850979588452081 0.95594428570238643 0 0.24536017905392571 0.90704567837671446 0 0.15720202157091859 0.60665697304410315 0 0.1241190223511371 0.64391885572885044 0 0.1024350934457823 0.60772393977513839 0 0.6499999999999998 0.69999999999999996 0 0.675261390228442 0.65996937624687813 0 0.69999999999999984 0.69999999999999996 0 0.3999999999989749 0 0 0.4320097814748517 0.037406712692169303 0 0.39591832466117061 0.056982757562006353 0 0.40000000000166441 1 0 0.39641108128798319 0.94356127926187128 0 0.4308986359464303 0.96395712492906194 0 0.54999999999999993 0.29999999999999999 0 0.56836770495988642 0.3523062350852913 0 0.52752007115234678 0.33170632466418198 0 0.14474682429600511 0.85524784522713515 0 0.17777405986036951 0.81832336108265358 0 0.19741632902693801 0.86755867406447229 0 0.21858834311891909 0.81980263716112767 0 0.19741632902693801 0.86755867406447229 0 0.17777405986036951 0.81832336108265358 0 0.54782696902220018 0.79245182748204157 0 0.50731287292894423 0.78963574450233831 0 0.50945740445113552 0.75476055527778108 0 0.20000000000083221 1 0 0.18474005699953849 0.96231585248064622 0 0.22850979588452081 0.95594428570238643 0 0.19999999999955789 0 0 0.22668068146512929 0.045875643423131329 0 0.184418230509967 0.038773194583122873 0 0.77846603114747959 0.49850927265137401 0 0.73947346780852752 0.49062440112282169 0 0.77972660463949339 0.45529290596363098 0 0.73483647259922602 0.44789725365921768 0 0.77972660463949339 0.45529290596363098 0 0.73947346780852752 0.49062440112282169 0 0.34258405725730701 0.4444034294386992 0 0.35024835142131061 0.48654922671676981 0 0.31068898841644388 0.47541502461811092 0 0.33123028043633618 0.77629643437932982 0 0.2792923945214143 0.77665808831789485 0 0.29904318922293632 0.74132814928635593 0 0.26573297623774761 0.59828298563722948 0 0.25115337790845271 0.54719303014923271 0 0.29110487519241501 0.56588143995431495 0 0.4656888918609538 0.78493261229743638 0 0.50945740445113552 0.75476055527778108 0 0.50731287292894423 0.78963574450233831 0 0.35312867752657662 0.084946736076730367 0 0.36246644853392812 0.1399454205365751 0 0.32215584939770009 0.1218492143506909 0 0.29348325746214782 0.31350119524708198 0 0.25966125648670141 0.34351016742083729 0 0.24432083401701241 0.3006253385567515 0 0.59999999999999976 0.69999999999999996 0 0.6499999999999998 0.69999999999999996 0 0.63221990677827677 0.73442891067859706 0 0.69999999999921003 0 0 0.7010294155333181 0.056779085686491267 0 0.66369801598854572 0.036327466368102787 0 0.40000000000166441 1 0 0.35000000000145642 1 0 0.36184234618600131 0.96443954459096326 0 0.34999999999912063 0 0 0.3999999999989749 0 0 0.3615861437013822 0.03582617922508851 0 0.43507373378304309 0.49699695397193322 0 0.47793794143994173 0.52940715638744962 0 0.42644501560315817 0.54603747078095544 0 0.14474682429600511 0.85524784522713515 0 0.19741632902693801 0.86755867406447229 0 0.16206583317966519 0.89685560785156404 0 0.19901705110390991 0.9175543425573498 0 0.16206583317966519 0.89685560785156404 0 0.19741632902693801 0.86755867406447229 0 0.35864735590330371 0.63903383440414463 0 0.3977710372045391 0.65868194622830212 0 0.36622285152418499 0.69092437780804039 0 0.7527966693318906 0.053051678021508272 0 0.7010294155333181 0.056779085686491267 0 0.72683645290270404 0.027797073151180601 0 0.71508799138962864 0.36622814920737751 0 0.72622533758026719 0.40265885511101601 0 0.68128176404677243 0.38629093627004979 0 0.79999999999999982 0.69999999999999996 0 0.84999999999999987 0.69999999999999996 0 0.81864958914779962 0.73589050177899629 0 0.79999999999947335 0 0 0.84999999999960507 0 0 0.81864958914740749 0.035890501779055867 0 0.39536230704883951 0.84069429572832477 0 0.35642984951668422 0.80994399665655703 0 0.38586766253264881 0.78219501014812498 0 0.42377727103934271 0.25099357235810238 0 0.46429753744194407 0.22870891180733599 0 0.4604742573284204 0.27846934318264788 0 0.39801143831225599 0.16651381068160659 0 0.42905200079338551 0.19982395548231649 0 0.38831533174504851 0.2189834941785925 0 0.79999999999999982 1 0 0.770759834363826 0.95919399014344442 0 0.81486180804382891 0.96321394949790495 0 0.79999999999999982 0.29999999999999999 0 0.77075983436335049 0.25919399014334171 0 0.81486180804364938 0.26321394949780091 0 0.25195515620380449 0.25883339815888678 0 0.21049769590865089 0.26857363548218488 0 0.224700362040408 0.22206622194729711 0 0.40326160981139969 0.73346192995102844 0 0.42676259796334498 0.76772545931379299 0 0.38586766253264881 0.78219501014812498 0 0.35312867752657662 0.084946736076730367 0 0.3096713403101819 0.085471541595262421 0 0.32541448401678508 0.046215317981507749 0 0.59999999999999976 0.29999999999999999 0 0.6499999999999998 0.29999999999999999 0 0.61959173890754571 0.33832250091341232 0 0.2185883431182947 0.18019736283949719 0 0.18652628422869419 0.14162325200928061 0 0.22985637510995899 0.1298347970200906 0 0.64999999999907843 0 0 0.69999999999921003 0 0 0.66369801598854572 0.036327466368102787 0 0.27499999999933927 0.060310814194988557 0 0.24218496799700481 0.089025544070598317 0 0.22668068146512929 0.045875643423131329 0 0.19922788606653311 0.085920220746880993 0 0.22668068146512929 0.045875643423131329 0 0.24218496799700481 0.089025544070598317 0 0.65507451745379841 0.92229208810758578 0 0.66412543161245952 0.88015090885499059 0 0.68987011941058407 0.92105047536677087 0 0.049706944316475897 0.72477277076253799 0 0.090953281884486245 0.7564451946902494 0 0.04408157711937423 0.7728941757575627 0 0.083105206071452636 0.79992298667296435 0 0.04408157711937423 0.7728941757575627 0 0.090953281884486245 0.7564451946902494 0 0.083105206071467416 0.20007701332709979 0 0.095326043202144745 0.24554465089224409 0 0.044081577119474857 0.2271058242433576 0 0.049706944316556423 0.27522722923869108 0 0.044081577119474857 0.2271058242433576 0 0.095326043202144745 0.24554465089224409 0 0.36575549820117997 0.31677992835137742 0 0.33402499257867951 0.28911035184473982 0 0.3786248352540974 0.27082301512024259 0 0.53245488764484505 0.55078124999999989 0 0.53330375813596242 0.50827942741749099 0 0.57435499076887508 0.54267261987897775 0 0.57611405284611883 0.50165903596042916 0 0.57435499076887508 0.54267261987897775 0 0.53330375813596242 0.50827942741749099 0 0.6499999999999998 0.29999999999999999 0 0.69999999999999984 0.29999999999999999 0 0.68887083591306764 0.33632058575757479 0 0.57611405284611883 0.50165903596042916 0 0.53823865529665704 0.45873898050322898 0 0.57975577671020095 0.46172033326338591 0 0.7750489929959945 0.66593931409600093 0 0.72500000000000064 0.67022701834392062 0 0.74994237037456724 0.62775548192980357 0 0.78145581580700685 0.34881365920033602 0 0.74764719760526988 0.3719647154012321 0 0.73090396928863699 0.33699297293167962 0 0.3999999999989749 0 0 0.44999999999882923 0 0 0.4320097814748517 0.037406712692169303 0 0.45000000000187229 1 0 0.40000000000166441 1 0 0.4308986359464303 0.96395712492906194 0 0.57484956128872922 0.66573805030881994 0 0.5991018319127801 0.62925360607495295 0 0.62460753523532009 0.66851202781000296 0 0.7750489929959945 0.66593931409600093 0 0.79884539758237771 0.62875045078114233 0 0.82457059160610424 0.66831947184359608 0 0.39801143831225599 0.16651381068160659 0 0.36246644853392812 0.1399454205365751 0 0.39823268594401579 0.1116623613130045 0 0.078358742472063481 0.43365249433908948 0 0.033550201249889847 0.46247875832467239 0 0.035463093262830522 0.42673416072819947 0 0.25676291524611189 0.7436741304886243 0 0.2792923945214143 0.77665808831789485 0 0.22556077506376701 0.77837424984191617 0 0.2236846579037573 0.67380363126050236 0 0.2248999640082178 0.72584299459689172 0 0.19068556247388771 0.71028988922845504 0 0.50715858906372158 0.63295939104129484 0 0.5166924242153631 0.59825134841919447 0 0.5498280205245758 0.6290146943450976 0 0.14618258501891079 0.062070108745602003 0 0.12372429750337779 0.095814237875728972 0 0.10266856499169109 0.044518360900210059 0 0.083411279318303222 0.089699755330707398 0 0.10266856499169109 0.044518360900210059 0 0.12372429750337779 0.095814237875728972 0 0.083411279318375747 0.91030024466934134 0 0.1241151115713819 0.9045666525468371 0 0.10266856499240549 0.95548163909968886 0 0.14617343800780541 0.93808063414349496 0 0.10266856499240549 0.95548163909968886 0 0.1241151115713819 0.9045666525468371 0 0.5499999999988151 0 0 0.59999999999894682 0 0 0.57396793757665954 0.037011367187645222 0 0.54782696902220018 0.79245182748204157 0 0.50627822638148745 0.8263979829520941 0 0.50731287292894423 0.78963574450233831 0 0.6499999999999998 0.29999999999999999 0 0.62657463266645097 0.26524202571255862 0 0.67933712972090698 0.25920070958121938 0 0.86956835336234861 0.571283299838105 0 0.86907294890112186 0.52008116128001669 0 0.90900154012161016 0.53607784105648792 0 0.17933913398461551 0.2350063570234002 0 0.224700362040408 0.22206622194729711 0 0.21049769590865089 0.26857363548218488 0 0.43249999999999988 0.43937499999999979 0 0.3908716102680424 0.47010282357248828 0 0.38707855792647411 0.42299362914874578 0 0.27474541102162192 0.11822029332053539 0 0.22985637510995899 0.1298347970200906 0 0.24218496799700481 0.089025544070598317 0 0.64753070846764316 0.77332939069435502 0 0.66427993341343905 0.73232764502436276 0 0.6916490518212759 0.75387992374886192 0 0 0.40000000000166441 0 0.050583896093752537 0.38543522283434112 0 0.035463093262830522 0.42673416072819947 0 0.73483647259922602 0.44789725365921768 0 0.73947346780852752 0.49062440112282169 0 0.69385896817107129 0.48377516041410151 0 0.57484956128872922 0.66573805030881994 0 0.52584555706968406 0.66664215091846768 0 0.5498280205245758 0.6290146943450976 0 0.60000000000138687 1 0 0.55000000000173355 1 0 0.57382506491224949 0.9629411906298494 0 0.068743045408989428 0.48853989837882689 0 0.085622222639554768 0.53333248912060549 0 0.044576108720083309 0.53509043209532614 0 0.083105206071467416 0.20007701332709979 0 0.044081577119474857 0.2271058242433576 0 0.038512288486115001 0.1844147282893184 0 0.083105206071452636 0.79992298667296435 0 0.038512288486097702 0.8155852717111195 0 0.04408157711937423 0.7728941757575627 0 0.28307294598219601 0.50789252727458634 0 0.23975172658309729 0.49475499200540818 0 0.25982634974572738 0.46097799597715272 0 0.43698630808430822 0.080423614171545449 0 0.39591832466117061 0.056982757562006353 0 0.4320097814748517 0.037406712692169303 0 0.4367309254023824 0.92065556789053882 0 0.4308986359464303 0.96395712492906194 0 0.39641108128798319 0.94356127926187128 0 0.80185942888539485 0.77452061303608133 0 0.75841349681148107 0.75422312624214749 0 0.78578450296893509 0.73292684821144505 0 0.80185942888501827 0.074520613036224564 0 0.7527966693318906 0.053051678021508272 0 0.78393852574753176 0.032039079577822822 0 0.6499999999999998 0.69999999999999996 0 0.62460753523532009 0.66851202781000296 0 0.675261390228442 0.65996937624687813 0 0.33123028043633618 0.77629643437932982 0 0.38586766253264881 0.78219501014812498 0 0.35642984951668422 0.80994399665655703 0 0.6405463747586706 0.63290524857395714 0 0.675261390228442 0.65996937624687813 0 0.62460753523532009 0.66851202781000296 0 0.22278230690790279 0.44824268025881547 0 0.191953871957803 0.42546416763755879 0 0.24049127783545701 0.41270748208749802 0 0.077693244765132896 0.56932317963405099 0 0.050069554451969707 0.61308520079857043 0 0.034381862692950467 0.57372682250960894 0 0.25195515620380449 0.25883339815888678 0 0.24432083401701241 0.3006253385567515 0 0.21049769590865089 0.26857363548218488 0 0.46666084890304671 0.57634471035397938 0 0.5166924242153631 0.59825134841919447 0 0.47095389620662098 0.61892551373708504 0 0.50715858906372158 0.63295939104129484 0 0.47095389620662098 0.61892551373708504 0 0.5166924242153631 0.59825134841919447 0 0.72525833953073282 0.1032114801687094 0 0.7527966693318906 0.053051678021508272 0 0.76878382444651716 0.097147941686331368 0 0.80185942888501827 0.074520613036224564 0 0.76878382444651716 0.097147941686331368 0 0.7527966693318906 0.053051678021508272 0 0.72500000000000064 0.7952620967744265 0 0.75841349681148107 0.75422312624214749 0 0.77094201086366854 0.79647480515688507 0 0.80185942888539485 0.77452061303608133 0 0.77094201086366854 0.79647480515688507 0 0.75841349681148107 0.75422312624214749 0 0.72500000000000064 0.7952620967744265 0 0.68024162096458085 0.79868546898116533 0 0.6916490518212759 0.75387992374886192 0 0.64753070846764316 0.77332939069435502 0 0.6916490518212759 0.75387992374886192 0 0.68024162096458085 0.79868546898116533 0 0 0.50000000000205869 0 0 0.45000000000187229 0 0.033550201249889847 0.46247875832467239 0 0.69999999999999984 0.69999999999999996 0 0.675261390228442 0.65996937624687813 0 0.72500000000000064 0.67022701834392062 0 0.71406021706547751 0.63292083137662503 0 0.72500000000000064 0.67022701834392062 0 0.675261390228442 0.65996937624687813 0 0.65408113592120842 0.073941773121567966 0 0.61940220174112337 0.047251958781050582 0 0.66369801598854572 0.036327466368102787 0 0.59999999999894682 0 0 0.61940220174112337 0.047251958781050582 0 0.57396793757665954 0.037011367187645222 0 0.60000000000138687 1 0 0.57382506491224949 0.9629411906298494 0 0.62065498684670595 0.95224934003983619 0 0.33122374654748771 0.57588941099433744 0 0.35765792684946668 0.6000687869219653 0 0.31502927232353312 0.6134992213375432 0 0.35864735590330371 0.63903383440414463 0 0.31502927232353312 0.6134992213375432 0 0.35765792684946668 0.6000687869219653 0 0.15801167086041079 0.46008690540259539 0 0.19604738184454831 0.47787523520405789 0 0.16618607197337229 0.50652878253548905 0 0.078358742472063481 0.43365249433908948 0 0.035463093262830522 0.42673416072819947 0 0.050583896093752537 0.38543522283434112 0 0.19901705110390991 0.9175543425573498 0 0.22850979588452081 0.95594428570238643 0 0.18474005699953849 0.96231585248064622 0 0.19922788606653311 0.085920220746880993 0 0.184418230509967 0.038773194583122873 0 0.22668068146512929 0.045875643423131329 0 0.19922788606653311 0.085920220746880993 0 0.24218496799700481 0.089025544070598317 0 0.22985637510995899 0.1298347970200906 0 0.74999999999999989 0.69999999999999996 0 0.78578450296893509 0.73292684821144505 0 0.75841349681148107 0.75422312624214749 0 0.74999999999934175 0 0 0.78393852574753176 0.032039079577822822 0 0.7527966693318906 0.053051678021508272 0 0 0.60000000000138687 0 0.034381862692950467 0.57372682250960894 0 0.050069554451969707 0.61308520079857043 0 0.2236846579037573 0.67380363126050236 0 0.26439878998046262 0.7048065392091396 0 0.2248999640082178 0.72584299459689172 0 0.6236733212988993 0.14864538214901801 0 0.58516465772821369 0.11653801664834119 0 0.61956000905586006 0.1043312481793135 0 0.26104540868854792 0.81401944968719064 0 0.2792923945214143 0.77665808831789485 0 0.30857225866488791 0.81101973481716805 0 0.42377727103934271 0.25099357235810238 0 0.42905200079338551 0.19982395548231649 0 0.46429753744194407 0.22870891180733599 0 0.27820712747429932 0.65530134213254643 0 0.31502927232353312 0.6134992213375432 0 0.32263089806001177 0.66003674931826484 0 0.61343887413683884 0.856862479058357 0 0.61885627562261258 0.90282959257498208 0 0.5832743223239254 0.88483152652961872 0 0.43698630808430822 0.080423614171545449 0 0.47040171442036788 0.044141676406503738 0 0.47881186583059909 0.093591717165689425 0 0.4367309254023824 0.92065556789053882 0 0.47401147028110507 0.91529957330468115 0 0.47135117303824892 0.95556877749289892 0 0.91696753777131557 0.497780560203536 0 0.95631871884947484 0.51827533208233789 0 0.90900154012161016 0.53607784105648792 0 0.93732437411268477 0.55911392101136159 0 0.90900154012161016 0.53607784105648792 0 0.95631871884947484 0.51827533208233789 0 0.27474541102162192 0.11822029332053539 0 0.25557216766470708 0.15874861286892261 0 0.22985637510995899 0.1298347970200906 0 0.2185883431182947 0.18019736283949719 0 0.22985637510995899 0.1298347970200906 0 0.25557216766470708 0.15874861286892261 0 0.29348325746214782 0.31350119524708198 0 0.33402499257867951 0.28911035184473982 0 0.32752639306529541 0.32610012995269699 0 0.27499999999933927 0.060310814194988557 0 0.32541448401678508 0.046215317981507749 0 0.3096713403101819 0.085471541595262421 0 0.27270076654418179 0.87751467830216623 0 0.24536017905392571 0.90704567837671446 0 0.2401283238295133 0.85648409884788523 0 1 0.44999999999963131 0 1 0.49999999999950101 0 0.96228564064454991 0.48206450662049471 0 0.61343887413683884 0.856862479058357 0 0.66412543161245952 0.88015090885499059 0 0.61885627562261258 0.90282959257498208 0 0 0.45000000000187229 0 0 0.40000000000166441 0 0.035463093262830522 0.42673416072819947 0 0.69999999999999984 0.69999999999999996 0 0.6916490518212759 0.75387992374886192 0 0.66427993341343905 0.73232764502436276 0 0.43846182030517877 0.64845797726506715 0 0.43323420005758778 0.6913544522562407 0 0.3977710372045391 0.65868194622830212 0 0.4367309254023824 0.92065556789053882 0 0.44003836461056539 0.88093474584252718 0 0.47401147028110507 0.91529957330468115 0 0.43846182030517877 0.64845797726506715 0 0.39743091024207589 0.6239520004230239 0 0.43545892161006339 0.61093128915313821 0 0.43846182030517877 0.64845797726506715 0 0.3977710372045391 0.65868194622830212 0 0.39743091024207589 0.6239520004230239 0 0.26429849586623999 0.19346700179430079 0 0.29336099386129338 0.15892013001050981 0 0.31255190597181792 0.19850845631528771 0 0.19670163708476801 0.31472518408333222 0 0.21049769590865089 0.26857363548218488 0 0.24432083401701241 0.3006253385567515 0 0.57724883562309992 0.92155686857100794 0 0.62065498684670595 0.95224934003983619 0 0.57382506491224949 0.9629411906298494 0 0.4409427642593301 0.35743108089689513 0 0.46655310992796922 0.39650496622958609 0 0.42161023666869668 0.39493916313643851 0 0.46666084890304671 0.57634471035397938 0 0.47095389620662098 0.61892551373708504 0 0.43545892161006339 0.61093128915313821 0 0.6879972333610942 0.43038561374960838 0 0.65178832218679827 0.45929119821019959 0 0.63912439215427275 0.41063340167983359 0 0.43698630808430822 0.080423614171545449 0 0.4320097814748517 0.037406712692169303 0 0.47040171442036788 0.044141676406503738 0 0.4367309254023824 0.92065556789053882 0 0.47135117303824892 0.95556877749289892 0 0.4308986359464303 0.96395712492906194 0 0.79680861578988083 0.92656778056766709 0 0.81486180804382891 0.96321394949790495 0 0.770759834363826 0.95919399014344442 0 0.79680861578956375 0.22656778056752541 0 0.81486180804364938 0.26321394949780091 0 0.77075983436335049 0.25919399014334171 0 0.71508799138962864 0.36622814920737751 0 0.68128176404677243 0.38629093627004979 0 0.68887083591306764 0.33632058575757479 0 0.35864735590330371 0.63903383440414463 0 0.32263089806001177 0.66003674931826484 0 0.31502927232353312 0.6134992213375432 0 0.21858834311891909 0.81980263716112767 0 0.2401283238295133 0.85648409884788523 0 0.19741632902693801 0.86755867406447229 0 0.35312867752657662 0.084946736076730367 0 0.32215584939770009 0.1218492143506909 0 0.3096713403101819 0.085471541595262421 0 0.35752321586431363 0.9185439911803448 0 0.35864759629805099 0.87963482415279515 0 0.39767323751400468 0.89584229130535065 0 0.41914690343363781 0.30688979866601612 0 0.4604742573284204 0.27846934318264788 0 0.46226845272279993 0.31901800744800313 0 0.33084213324567391 0.16272720141332131 0 0.32215584939770009 0.1218492143506909 0 0.36246644853392812 0.1399454205365751 0 0.46666084890304671 0.57634471035397938 0 0.42644501560315817 0.54603747078095544 0 0.47793794143994173 0.52940715638744962 0 0 0.60000000000138687 0 0 0.55000000000173355 0 0.034381862692950467 0.57372682250960894 0 0.77354604466818633 0.40378688774472771 0 0.74764719760526988 0.3719647154012321 0 0.78145581580700685 0.34881365920033602 0 0.34999999999912063 0 0 0.3615861437013822 0.03582617922508851 0 0.32541448401678508 0.046215317981507749 0 0.35000000000145642 1 0 0.32544832635163229 0.95485394099568932 0 0.36184234618600131 0.96443954459096326 0 0.57667858002728545 0.078486105337742612 0 0.57396793757665954 0.037011367187645222 0 0.61940220174112337 0.047251958781050582 0 0.47357141910802508 0.1873585799078378 0 0.50760557329222289 0.20700468884612061 0 0.46429753744194407 0.22870891180733599 0 0.49695729691142171 0.25014895411178018 0 0.46429753744194407 0.22870891180733599 0 0.50760557329222289 0.20700468884612061 0 0.33084213324567391 0.16272720141332131 0 0.3572130504031617 0.1874703368446563 0 0.31255190597181792 0.19850845631528771 0 0.6879972333610942 0.43038561374960838 0 0.63912439215427275 0.41063340167983359 0 0.68128176404677243 0.38629093627004979 0 0.65408113592120842 0.073941773121567966 0 0.65290632656860115 0.11434202593454081 0 0.61956000905586006 0.1043312481793135 0 0.33084213324567391 0.16272720141332131 0 0.31255190597181792 0.19850845631528771 0 0.29336099386129338 0.15892013001050981 0 0.61209567303293111 0.44669033081290321 0 0.63912439215427275 0.41063340167983359 0 0.65178832218679827 0.45929119821019959 0 0.086179601630648681 0.64647209519980475 0 0.1024350934457823 0.60772393977513839 0 0.1241190223511371 0.64391885572885044 0 0.44999999999882923 0 0 0.47040171442036788 0.044141676406503738 0 0.4320097814748517 0.037406712692169303 0 0.45000000000187229 1 0 0.4308986359464303 0.96395712492906194 0 0.47135117303824892 0.95556877749289892 0 0.74999999999934175 0 0 0.7527966693318906 0.053051678021508272 0 0.72683645290270404 0.027797073151180601 0 0.74999999999999989 0.69999999999999996 0 0.75841349681148107 0.75422312624214749 0 0.72501250972655151 0.74067302935308721 0 0.69999999999999984 0.69999999999999996 0 0.72501250972655151 0.74067302935308721 0 0.6916490518212759 0.75387992374886192 0 0.74999999999934175 0 0 0.79999999999947335 0 0 0.78393852574753176 0.032039079577822822 0 0.74999999999999989 0.69999999999999996 0 0.79999999999999982 0.69999999999999996 0 0.78578450296893509 0.73292684821144505 0 0.6405463747586706 0.63290524857395714 0 0.5991018319127801 0.62925360607495295 0 0.63065402604362242 0.59661356661633302 0 0.65481233915350323 0.35652751921065562 0 0.68887083591306764 0.33632058575757479 0 0.68128176404677243 0.38629093627004979 0 0.89999999999999991 0.29999999999999999 0 0.94999999999999996 0.29999999999999999 0 0.92012390126144183 0.33123581297173937 0 0.89999999999999991 0.69999999999999996 0 0.92057473616084773 0.66770436535372446 0 0.94999999999999996 0.69999999999999996 0 0.4367309254023824 0.92065556789053882 0 0.39767323751400468 0.89584229130535065 0 0.44003836461056539 0.88093474584252718 0 0.2185883431182947 0.18019736283949719 0 0.18124454140915969 0.18790916706335251 0 0.18652628422869419 0.14162325200928061 0 0.20050006573841939 0.53248514016039872 0 0.19604738184454831 0.47787523520405789 0 0.23975172658309729 0.49475499200540818 0 0.65507451745379841 0.92229208810758578 0 0.61885627562261258 0.90282959257498208 0 0.66412543161245952 0.88015090885499059 0 0.65394964615507722 0.22666784374016369 0 0.67933712972090698 0.25920070958121938 0 0.62657463266645097 0.26524202571255862 0 0.077693244765132896 0.56932317963405099 0 0.034381862692950467 0.57372682250960894 0 0.044576108720083309 0.53509043209532614 0 0.39801143831225599 0.16651381068160659 0 0.38831533174504851 0.2189834941785925 0 0.3572130504031617 0.1874703368446563 0 0.6499999999999998 0.69999999999999996 0 0.69999999999999984 0.69999999999999996 0 0.66427993341343905 0.73232764502436276 0 0.1215415378367805 0.72939333680004137 0 0.15332765547575641 0.71200081858233666 0 0.14335651144331049 0.75565258250209677 0 0.6405463747586706 0.63290524857395714 0 0.63065402604362242 0.59661356661633302 0 0.67529834988829951 0.61613270668143583 0 0.67323294229744413 0.57556450033612505 0 0.67529834988829951 0.61613270668143583 0 0.63065402604362242 0.59661356661633302 0 0.91750694127107502 0.36982372220068471 0 0.87430060258887643 0.34056085888204451 0 0.92012390126144183 0.33123581297173937 0 0.89999999999999991 0.29999999999999999 0 0.92012390126144183 0.33123581297173937 0 0.87430060258887643 0.34056085888204451 0 0.89999999999999991 0.69999999999999996 0 0.87712158428786946 0.65709029563313581 0 0.92057473616084773 0.66770436535372446 0 0.91750694127105259 0.63017627779935648 0 0.92057473616084773 0.66770436535372446 0 0.87712158428786946 0.65709029563313581 0 0.33122374654748771 0.57588941099433744 0 0.29110487519241501 0.56588143995431495 0 0.33190227185843768 0.52715113583864037 0 0.57484956128872922 0.66573805030881994 0 0.5498280205245758 0.6290146943450976 0 0.5991018319127801 0.62925360607495295 0 0.57412547362576272 0.58273804879550706 0 0.5991018319127801 0.62925360607495295 0 0.5498280205245758 0.6290146943450976 0 0.65408113592120842 0.073941773121567966 0 0.66369801598854572 0.036327466368102787 0 0.7010294155333181 0.056779085686491267 0 0.27474541102162192 0.11822029332053539 0 0.32215584939770009 0.1218492143506909 0 0.29336099386129338 0.15892013001050981 0 0.33084213324567391 0.16272720141332131 0 0.29336099386129338 0.15892013001050981 0 0.32215584939770009 0.1218492143506909 0 0.5 0.29999999999999999 0 0.54999999999999993 0.29999999999999999 0 0.52752007115234678 0.33170632466418198 0 0.83573492347052902 0.36590755630746369 0 0.87430060258887643 0.34056085888204451 0 0.86844634540301924 0.38530937474099819 0 0.83758014339878906 0.63222013025741819 0 0.87159648282691515 0.61285406320581504 0 0.87712158428786946 0.65709029563313581 0 0.22278230690790279 0.44824268025881547 0 0.23975172658309729 0.49475499200540818 0 0.19604738184454831 0.47787523520405789 0 1 0.49999999999950101 0 0.95631871884947484 0.51827533208233789 0 0.96228564064454991 0.48206450662049471 0 0.1650278706801647 0.38791388161335733 0 0.13773355295499351 0.42497777642586831 0 0.1117088112799664 0.38831403004970022 0 0.61209567303293111 0.44669033081290321 0 0.57975577671020095 0.46172033326338591 0 0.57744073070774993 0.41535148636609359 0 0.077693244765132896 0.56932317963405099 0 0.1154888278694548 0.56733818459978413 0 0.1024350934457823 0.60772393977513839 0 0.68697391633157634 0.84450604838764298 0 0.65005442820240822 0.82644988530054031 0 0.68024162096458085 0.79868546898116533 0 0.76901770135486491 0.84293557325473656 0 0.77094201086366854 0.79647480515688507 0 0.80041942726660109 0.81543261647703358 0 0.77144070960558853 0.14311854477243749 0 0.76878382444651716 0.097147941686331368 0 0.80076557130237269 0.1154587552654202 0 0.5 0.69999999999999996 0 0.52584555706968406 0.66664215091846768 0 0.54999999999999993 0.69999999999999996 0 0.077693244765132896 0.56932317963405099 0 0.044576108720083309 0.53509043209532614 0 0.085622222639554768 0.53333248912060549 0 0.69999999999921003 0 0 0.72683645290270404 0.027797073151180601 0 0.7010294155333181 0.056779085686491267 0 1 0 0 0.97166519676946894 0.033371144900598393 0 0.94999999999986839 0 0 1 0.69999999999999996 0 0.97166519676947294 0.73337114490064459 0 0.94999999999999996 0.69999999999999996 0 1 0.69999999999999996 0 1 0.74999999999993494 0 0.97166519676947294 0.73337114490064459 0 1 0.29999999999999999 0 0.97166519676951801 0.26662885509932011 0 1 0.24999999999987299 0 1 1 0 0.94999999999979179 1 0 0.97166519676946206 0.96662885509935492 0 1 0 0 1 0.049999999999896842 0 0.97166519676946894 0.033371144900598393 0 1 0.29999999999999999 0 0.94999999999999996 0.29999999999999999 0 0.97166519676951801 0.26662885509932011 0 1 1 0 0.97166519676946206 0.96662885509935492 0 1 0.94999999999997109 0 0 0.55000000000173355 0 0.044576108720083309 0.53509043209532614 0 0.034381862692950467 0.57372682250960894 0 0.6879972333610942 0.43038561374960838 0 0.69385896817107129 0.48377516041410151 0 0.65178832218679827 0.45929119821019959 0 0.33084213324567391 0.16272720141332131 0 0.36246644853392812 0.1399454205365751 0 0.3572130504031617 0.1874703368446563 0 0.65408113592120842 0.073941773121567966 0 0.68330259535470161 0.10038702501083881 0 0.65290632656860115 0.11434202593454081 0 0.16500388252850301 0.66612077714085194 0 0.19068556247388771 0.71028988922845504 0 0.15332765547575641 0.71200081858233666 0 0.82709327591091286 0.84937141670920724 0 0.85600844944837662 0.88483418979512773 0 0.81159157511211755 0.88795995483179491 0 0.82709327591102189 0.14937141670914489 0 0.85600844944842547 0.1848341897950983 0 0.81283102246527783 0.1881007222486438 0 0.79999999999999982 0.29999999999999999 0 0.84999999999999987 0.29999999999999999 0 0.82500000000000062 0.33010209762754811 0 0.79999999999999982 0.69999999999999996 0 0.82457059160610424 0.66831947184359608 0 0.84999999999999987 0.69999999999999996 0 0.59999999999999976 0.69999999999999996 0 0.62460753523532009 0.66851202781000296 0 0.6499999999999998 0.69999999999999996 0 0.39801143831225599 0.16651381068160659 0 0.3572130504031617 0.1874703368446563 0 0.36246644853392812 0.1399454205365751 0 0.69999999999999984 0.29999999999999999 0 0.74999999999999989 0.29999999999999999 0 0.73090396928863699 0.33699297293167962 0 0.69999999999999984 0.69999999999999996 0 0.72500000000000064 0.67022701834392062 0 0.74999999999999989 0.69999999999999996 0 0.6236733212988993 0.14864538214901801 0 0.64011864159029941 0.18789607982138171 0 0.59443395090188023 0.18455690917515069 0 0.20050006573841939 0.53248514016039872 0 0.16618607197337229 0.50652878253548905 0 0.19604738184454831 0.47787523520405789 0 0.79680861578956375 0.22656778056752541 0 0.76587607630038135 0.18880039518954719 0 0.81283102246527783 0.1881007222486438 0 0.79680861578988083 0.92656778056766709 0 0.76891166905518427 0.88835469571185499 0 0.81159157511211755 0.88795995483179491 0 0.71406021706547751 0.63292083137662503 0 0.675261390228442 0.65996937624687813 0 0.67529834988829951 0.61613270668143583 0 0.6405463747586706 0.63290524857395714 0 0.67529834988829951 0.61613270668143583 0 0.675261390228442 0.65996937624687813 0 0.19670163708476801 0.31472518408333222 0 0.168349569971391 0.28054490850913671 0 0.21049769590865089 0.26857363548218488 0 0.47357141910802508 0.1873585799078378 0 0.46429753744194407 0.22870891180733599 0 0.42905200079338551 0.19982395548231649 0 0.59814117807200873 0.23398510860739519 0 0.5794309697024993 0.27124795968204829 0 0.54248833945060504 0.2520322959927106 0 0.6541250972820879 0.49999999999999989 0 0.65178832218679827 0.45929119821019959 0 0.69385896817107129 0.48377516041410151 0 0.54999999999999993 0.29999999999999999 0 0.5794309697024993 0.27124795968204829 0 0.59999999999999976 0.29999999999999999 0 0.7750489929959945 0.66593931409600093 0 0.74994237037456724 0.62775548192980357 0 0.79884539758237771 0.62875045078114233 0 0.77293540622714185 0.59448302402785813 0 0.79884539758237771 0.62875045078114233 0 0.74994237037456724 0.62775548192980357 0 0.14332333627550789 0.14578431753966009 0 0.16141998738593399 0.10404039647458049 0 0.18652628422869419 0.14162325200928061 0 0.38083244760691543 0.38531983672244652 0 0.42161023666869668 0.39493916313643851 0 0.38707855792647411 0.42299362914874578 0 0.43249999999999988 0.43937499999999979 0 0.38707855792647411 0.42299362914874578 0 0.42161023666869668 0.39493916313643851 0 0.43846182030517877 0.64845797726506715 0 0.47095389620662098 0.61892551373708504 0 0.47913475093885149 0.66010775372412711 0 0.50715858906372158 0.63295939104129484 0 0.47913475093885149 0.66010775372412711 0 0.47095389620662098 0.61892551373708504 0 0.69999999999999984 0.69999999999999996 0 0.74999999999999989 0.69999999999999996 0 0.72501250972655151 0.74067302935308721 0 0.4089290844030305 0.58728915500154233 0 0.35765792684946668 0.6000687869219653 0 0.37272913873093971 0.56192925302619479 0 0.69999999999921003 0 0 0.74999999999934175 0 0 0.72683645290270404 0.027797073151180601 0 0.17933913398461551 0.2350063570234002 0 0.21049769590865089 0.26857363548218488 0 0.168349569971391 0.28054490850913671 0 0.14474682429600511 0.85524784522713515 0 0.10562472963403439 0.87143394428979881 0 0.1074251789111534 0.83564394292147814 0 0.14332333627550789 0.14578431753966009 0 0.106902708054812 0.16453234188234539 0 0.1053400320299198 0.12877248826361379 0 0.2236846579037573 0.67380363126050236 0 0.19914261668318661 0.62286739485272158 0 0.2459498854893499 0.63248470766216769 0 0.049999999999899652 0 0 0.053064897599215843 0.048131547304697528 0 0.02576622439977887 0.024532886826226379 0 0 0.050000000000207989 0 0.02576622439977887 0.024532886826226379 0 0.053064897599215843 0.048131547304697528 0 0.050000000000207989 1 0 0.025766224399875661 0.97546711317377799 0 0.053064897599294662 0.95186845269532028 0 0 0.94999999999979179 0 0.053064897599294662 0.95186845269532028 0 0.025766224399875661 0.97546711317377799 0 0.47357141910802508 0.1873585799078378 0 0.48466639505193998 0.1421439844745814 0 0.51729576145820033 0.1683240575987815 0 0.077693244765132896 0.56932317963405099 0 0.085622222639554768 0.53333248912060549 0 0.1154888278694548 0.56733818459978413 0 0.64753070846764316 0.77332939069435502 0 0.63221990677827677 0.73442891067859706 0 0.66427993341343905 0.73232764502436276 0 0.4656888918609538 0.78493261229743638 0 0.42609163930740518 0.80361684430568059 0 0.42676259796334498 0.76772545931379299 0 0.4089290844030305 0.58728915500154233 0 0.39743091024207589 0.6239520004230239 0 0.35765792684946668 0.6000687869219653 0 0.55306006949600994 0.20198184231352201 0 0.50760557329222289 0.20700468884612061 0 0.51729576145820033 0.1683240575987815 0 1 0.8999999999998336 0 1 0.94999999999997109 0 0.97435614836744289 0.92499999999990257 0 1 0.19999999999974799 0 1 0.24999999999987299 0 0.97435614836740092 0.22499999999981049 0 1 0.74999999999993494 0 1 0.7999999999998193 0 0.97435614836745565 0.77499999999987745 0 1 0.049999999999896842 0 1 0.099999999999753911 0 0.97435614836748241 0.074999999999825387 0 0.86411095495256451 0.42388805655111889 0 0.86844634540301924 0.38530937474099819 0 0.90594285160987287 0.4141265964174129 0 0.86956835336234861 0.571283299838105 0 0.91143117093204207 0.58709913730335972 0 0.87159648282691515 0.61285406320581504 0 0 0 0 0.02576622439977887 0.024532886826226379 0 0 0.050000000000207989 0 0 1 0 0 0.94999999999979179 0 0.025766224399875661 0.97546711317377799 0 0 1 0 0.025766224399875661 0.97546711317377799 0 0.050000000000207989 1 0 0 0 0 0.049999999999899652 0 0 0.02576622439977887 0.024532886826226379 0 0.65394964615507722 0.22666784374016369 0 0.64011864159029941 0.18789607982138171 0 0.6865991819015953 0.189116534044597 0 0.25195515620380449 0.25883339815888678 0 0.28040350263641872 0.23054717217092141 0 0.29132859388405002 0.27203693976649962 0 0.61209567303293111 0.44669033081290321 0 0.65178832218679827 0.45929119821019959 0 0.61547661924074692 0.48539576058873962 0 0.6541250972820879 0.49999999999999989 0 0.61547661924074692 0.48539576058873962 0 0.65178832218679827 0.45929119821019959 0 0.19670163708476801 0.31472518408333222 0 0.24432083401701241 0.3006253385567515 0 0.22615676742807109 0.33458786033114157 0 0.15801167086041079 0.46008690540259539 0 0.13773355295499351 0.42497777642586831 0 0.191953871957803 0.42546416763755879 0 0.1650278706801647 0.38791388161335733 0 0.191953871957803 0.42546416763755879 0 0.13773355295499351 0.42497777642586831 0 0.50715858906372158 0.63295939104129484 0 0.52584555706968406 0.66664215091846768 0 0.47913475093885149 0.66010775372412711 0 0.5 0.69999999999999996 0 0.47913475093885149 0.66010775372412711 0 0.52584555706968406 0.66664215091846768 0 0.51076801031701946 0.1202837388510348 0 0.51729576145820033 0.1683240575987815 0 0.48466639505193998 0.1421439844745814 0 0.71406021706547751 0.63292083137662503 0 0.74994237037456724 0.62775548192980357 0 0.72500000000000064 0.67022701834392062 0 0.71508799138962864 0.36622814920737751 0 0.73090396928863699 0.33699297293167962 0 0.74764719760526988 0.3719647154012321 0 0.22278230690790279 0.44824268025881547 0 0.25982634974572738 0.46097799597715272 0 0.23975172658309729 0.49475499200540818 0 0.80185942888539485 0.77452061303608133 0 0.78578450296893509 0.73292684821144505 0 0.81864958914779962 0.73589050177899629 0 0.80185942888501827 0.074520613036224564 0 0.78393852574753176 0.032039079577822822 0 0.81864958914740749 0.035890501779055867 0 0.5 0.29999999999999999 0 0.46226845272279993 0.31901800744800313 0 0.4604742573284204 0.27846934318264788 0 0.6405463747586706 0.63290524857395714 0 0.62460753523532009 0.66851202781000296 0 0.5991018319127801 0.62925360607495295 0 0.79680861578988083 0.92656778056766709 0 0.770759834363826 0.95919399014344442 0 0.75729602384198635 0.92353652857884294 0 0.79680861578956375 0.22656778056752541 0 0.77075983436335049 0.25919399014334171 0 0.75668890529066124 0.2244279804069782 0 0.65394964615507722 0.22666784374016369 0 0.69397719155551807 0.2245125647000914 0 0.67933712972090698 0.25920070958121938 0 0.81973119833356312 0.43505687159469048 0 0.84925632466077294 0.45359738909549091 0 0.81400510706333218 0.47357325943904899 0 0.83758014339878906 0.63222013025741819 0 0.82457059160610424 0.66831947184359608 0 0.79884539758237771 0.62875045078114233 0 0.25676291524611189 0.7436741304886243 0 0.2248999640082178 0.72584299459689172 0 0.26439878998046262 0.7048065392091396 0 0.91696753777131557 0.497780560203536 0 0.90900154012161016 0.53607784105648792 0 0.86907294890112186 0.52008116128001669 0 0.17933913398461551 0.2350063570234002 0 0.168349569971391 0.28054490850913671 0 0.14377654328998779 0.2442024734791064 0 0.1247745017231483 0.27198077544791172 0 0.14377654328998779 0.2442024734791064 0 0.168349569971391 0.28054490850913671 0 0.34258405725730701 0.4444034294386992 0 0.35221190152536241 0.40457127605439203 0 0.38707855792647411 0.42299362914874578 0 0.47357141910802508 0.1873585799078378 0 0.51729576145820033 0.1683240575987815 0 0.50760557329222289 0.20700468884612061 0 0.19670163708476801 0.31472518408333222 0 0.22615676742807109 0.33458786033114157 0 0.18434624290945251 0.35208838264196463 0 0.22033343844674469 0.36963382230740238 0 0.18434624290945251 0.35208838264196463 0 0.22615676742807109 0.33458786033114157 0 0.24432083401701241 0.3006253385567515 0 0.25966125648670141 0.34351016742083729 0 0.22615676742807109 0.33458786033114157 0 0.93814194660195893 0.44426664081746747 0 0.90594285160987287 0.4141265964174129 0 0.95871855522754235 0.40006508612975411 0 0.91750694127107502 0.36982372220068471 0 0.95871855522754235 0.40006508612975411 0 0.90594285160987287 0.4141265964174129 0 0.91750694127105259 0.63017627779935648 0 0.91143117093204207 0.58709913730335972 0 0.95867599106212187 0.60011091146651041 0 0.93732437411268477 0.55911392101136159 0 0.95867599106212187 0.60011091146651041 0 0.91143117093204207 0.58709913730335972 0 0.50715858906372158 0.63295939104129484 0 0.5498280205245758 0.6290146943450976 0 0.52584555706968406 0.66664215091846768 0 0.94399509803918602 0.75600490196082126 0 0.97435614836745565 0.77499999999987745 0 0.95386563387742829 0.80414874155775029 0 0.94399509803922566 0.056004901960802607 0 0.97435614836748241 0.074999999999825387 0 0.95386563387744361 0.1041487415577465 0 0.94399509803921056 0.24399509803922639 0 0.95391631417672862 0.19584263333809451 0 0.97435614836740092 0.22499999999981049 0 0.94399509803919068 0.9439950980391687 0 0.95391631417670719 0.89584263333814784 0 0.97435614836744289 0.92499999999990257 0 0.79680861578988083 0.92656778056766709 0 0.75729602384198635 0.92353652857884294 0 0.76891166905518427 0.88835469571185499 0 0.79680861578956375 0.22656778056752541 0 0.75668890529066124 0.2244279804069782 0 0.76587607630038135 0.18880039518954719 0 0.65394964615507722 0.22666784374016369 0 0.6865991819015953 0.189116534044597 0 0.69397719155551807 0.2245125647000914 0 0.38083244760691543 0.38531983672244652 0 0.38707855792647411 0.42299362914874578 0 0.35221190152536241 0.40457127605439203 0 1 0.7999999999998193 0 0.95386563387742829 0.80414874155775029 0 0.97435614836745565 0.77499999999987745 0 1 0.099999999999753911 0 0.95386563387744361 0.1041487415577465 0 0.97435614836748241 0.074999999999825387 0 1 0.8999999999998336 0 0.97435614836744289 0.92499999999990257 0 0.95391631417670719 0.89584263333814784 0 1 0.19999999999974799 0 0.97435614836740092 0.22499999999981049 0 0.95391631417672862 0.19584263333809451 0 0.84723782639812573 0.48638347960178252 0 0.81400510706333218 0.47357325943904899 0 0.84925632466077294 0.45359738909549091 0 0.54999999999999993 0.29999999999999999 0 0.54248833945060504 0.2520322959927106 0 0.5794309697024993 0.27124795968204829 0 0.94999999999999996 0.29999999999999999 0 0.95780851984364423 0.34215720972155339 0 0.92012390126144183 0.33123581297173937 0 0.94999999999999996 0.69999999999999996 0 0.92057473616084773 0.66770436535372446 0 0.9578014258160763 0.65787212321113708 0 0.15801167086041079 0.46008690540259539 0 0.113541300460994 0.46208784312094731 0 0.13773355295499351 0.42497777642586831 0 0.7250000000005199 0.94981617647078953 0 0.68015064798562208 0.95924320340003011 0 0.68987011941058407 0.92105047536677087 0 0.65507451745379841 0.92229208810758578 0 0.68987011941058407 0.92105047536677087 0 0.68015064798562208 0.95924320340003011 0 0.77846603114747959 0.49850927265137401 0 0.77972660463949339 0.45529290596363098 0 0.81400510706333218 0.47357325943904899 0 0.27866744612395528 0.38416094670951489 0 0.25966125648670141 0.34351016742083729 0 0.29644548887253103 0.34914008784168082 0 0.61209567303293111 0.44669033081290321 0 0.61547661924074692 0.48539576058873962 0 0.57975577671020095 0.46172033326338591 0 0.57611405284611883 0.50165903596042916 0 0.57975577671020095 0.46172033326338591 0 0.61547661924074692 0.48539576058873962 0 0.7250000000005199 0.89375000000045834 0 0.76891166905518427 0.88835469571185499 0 0.75729602384198635 0.92353652857884294 0 0.72500000000001008 0.19776155966387679 0 0.76587607630038135 0.18880039518954719 0 0.75668890529066124 0.2244279804069782 0 0.72500000000001008 0.19776155966387679 0 0.69397719155551807 0.2245125647000914 0 0.6865991819015953 0.189116534044597 0 0.083411279318303222 0.089699755330707398 0 0.12372429750337779 0.095814237875728972 0 0.1053400320299198 0.12877248826361379 0 0.083411279318375747 0.91030024466934134 0 0.10562472963403439 0.87143394428979881 0 0.1241151115713819 0.9045666525468371 0 0.14617343800780541 0.93808063414349496 0 0.1241151115713819 0.9045666525468371 0 0.16206583317966519 0.89685560785156404 0 0.14618258501891079 0.062070108745602003 0 0.16141998738593399 0.10404039647458049 0 0.12372429750337779 0.095814237875728972 0 0.33277555741076909 0.36432196682010132 0 0.35221190152536241 0.40457127605439203 0 0.31778888742534622 0.40581751814196781 0 0.7250000000005199 0.94981617647078953 0 0.75729602384198635 0.92353652857884294 0 0.770759834363826 0.95919399014344442 0 0.72500000000000064 0.2498161764706 0 0.75668890529066124 0.2244279804069782 0 0.77075983436335049 0.25919399014334171 0 0.72500000000000064 0.2498161764706 0 0.67933712972090698 0.25920070958121938 0 0.69397719155551807 0.2245125647000914 0 0.6236733212988993 0.14864538214901801 0 0.61956000905586006 0.1043312481793135 0 0.65290632656860115 0.11434202593454081 0 0.81973119833356312 0.43505687159469048 0 0.81400510706333218 0.47357325943904899 0 0.77972660463949339 0.45529290596363098 0 0.25676291524611189 0.7436741304886243 0 0.29904318922293632 0.74132814928635593 0 0.2792923945214143 0.77665808831789485 0 0.36575549820117997 0.31677992835137742 0 0.32752639306529541 0.32610012995269699 0 0.33402499257867951 0.28911035184473982 0 0.14332333627550789 0.14578431753966009 0 0.18652628422869419 0.14162325200928061 0 0.18124454140915969 0.18790916706335251 0 0.57724883562309992 0.92155686857100794 0 0.5832743223239254 0.88483152652961872 0 0.61885627562261258 0.90282959257498208 0 0.57667858002728545 0.078486105337742612 0 0.61956000905586006 0.1043312481793135 0 0.58516465772821369 0.11653801664834119 0 0.80185942888539485 0.77452061303608133 0 0.80041942726660109 0.81543261647703358 0 0.77094201086366854 0.79647480515688507 0 0.80185942888501827 0.074520613036224564 0 0.80076557130237269 0.1154587552654202 0 0.76878382444651716 0.097147941686331368 0 0.64753070846764316 0.77332939069435502 0 0.68024162096458085 0.79868546898116533 0 0.65005442820240822 0.82644988530054031 0 0.26429849586623999 0.19346700179430079 0 0.25557216766470708 0.15874861286892261 0 0.29336099386129338 0.15892013001050981 0 0.29348325746214782 0.31350119524708198 0 0.29644548887253103 0.34914008784168082 0 0.25966125648670141 0.34351016742083729 0 0.68391457121233579 0.14440470121196541 0 0.65290632656860115 0.11434202593454081 0 0.68330259535470161 0.10038702501083881 0 0.91750694127107502 0.36982372220068471 0 0.92012390126144183 0.33123581297173937 0 0.95780851984364423 0.34215720972155339 0 0.91750694127105259 0.63017627779935648 0 0.9578014258160763 0.65787212321113708 0 0.92057473616084773 0.66770436535372446 0 0.22033343844674469 0.36963382230740238 0 0.22615676742807109 0.33458786033114157 0 0.25966125648670141 0.34351016742083729 0 1 0.94999999999997109 0 0.97166519676946206 0.96662885509935492 0 0.97435614836744289 0.92499999999990257 0 0.94399509803919068 0.9439950980391687 0 0.97435614836744289 0.92499999999990257 0 0.97166519676946206 0.96662885509935492 0 0.94399509803921056 0.24399509803922639 0 0.97435614836740092 0.22499999999981049 0 0.97166519676951801 0.26662885509932011 0 1 0.24999999999987299 0 0.97166519676951801 0.26662885509932011 0 0.97435614836740092 0.22499999999981049 0 1 0.74999999999993494 0 0.97435614836745565 0.77499999999987745 0 0.97166519676947294 0.73337114490064459 0 1 0.049999999999896842 0 0.97435614836748241 0.074999999999825387 0 0.97166519676946894 0.033371144900598393 0 0.94399509803918602 0.75600490196082126 0 0.97166519676947294 0.73337114490064459 0 0.97435614836745565 0.77499999999987745 0 0.94399509803922566 0.056004901960802607 0 0.97166519676946894 0.033371144900598393 0 0.97435614836748241 0.074999999999825387 0 0.77846603114747959 0.49850927265137401 0 0.81400510706333218 0.47357325943904899 0 0.81441713509985358 0.51161854125224959 0 0.77354604466818633 0.40378688774472771 0 0.72622533758026719 0.40265885511101601 0 0.74764719760526988 0.3719647154012321 0 0.71508799138962864 0.36622814920737751 0 0.74764719760526988 0.3719647154012321 0 0.72622533758026719 0.40265885511101601 0 0.84723782639812573 0.48638347960178252 0 0.84925632466077294 0.45359738909549091 0 0.88594198078881503 0.46167788676578442 0 0.86411095495256451 0.42388805655111889 0 0.88594198078881503 0.46167788676578442 0 0.84925632466077294 0.45359738909549091 0 0.43846182030517877 0.64845797726506715 0 0.43545892161006339 0.61093128915313821 0 0.47095389620662098 0.61892551373708504 0 0.33123028043633618 0.77629643437932982 0 0.35642984951668422 0.80994399665655703 0 0.30857225866488791 0.81101973481716805 0 0.33403534827021109 0.84402799729020661 0 0.30857225866488791 0.81101973481716805 0 0.35642984951668422 0.80994399665655703 0 0.26429849586623999 0.19346700179430079 0 0.31255190597181792 0.19850845631528771 0 0.28040350263641872 0.23054717217092141 0 0.57724883562309992 0.92155686857100794 0 0.54783390826260769 0.89287767010860219 0 0.5832743223239254 0.88483152652961872 0 0.55899371797446828 0.85003102233514438 0 0.5832743223239254 0.88483152652961872 0 0.54783390826260769 0.89287767010860219 0 0.4089290844030305 0.58728915500154233 0 0.43545892161006339 0.61093128915313821 0 0.39743091024207589 0.6239520004230239 0 0.77293540622714185 0.59448302402785813 0 0.81723410853263523 0.59419663659258926 0 0.79884539758237771 0.62875045078114233 0 0.83758014339878906 0.63222013025741819 0 0.79884539758237771 0.62875045078114233 0 0.81723410853263523 0.59419663659258926 0 0.35864735590330371 0.63903383440414463 0 0.39743091024207589 0.6239520004230239 0 0.3977710372045391 0.65868194622830212 0 0.56202748619534593 0.15054058349222879 0 0.54979595918804436 0.1060565713905809 0 0.58516465772821369 0.11653801664834119 0 0.57667858002728545 0.078486105337742612 0 0.58516465772821369 0.11653801664834119 0 0.54979595918804436 0.1060565713905809 0 0.33122374654748771 0.57588941099433744 0 0.37272913873093971 0.56192925302619479 0 0.35765792684946668 0.6000687869219653 0 0.35864735590330371 0.63903383440414463 0 0.35765792684946668 0.6000687869219653 0 0.39743091024207589 0.6239520004230239 0 0.71508799138962864 0.36622814920737751 0 0.68887083591306764 0.33632058575757479 0 0.73090396928863699 0.33699297293167962 0 0.29348325746214782 0.31350119524708198 0 0.32752639306529541 0.32610012995269699 0 0.29644548887253103 0.34914008784168082 0 0.33277555741076909 0.36432196682010132 0 0.29644548887253103 0.34914008784168082 0 0.32752639306529541 0.32610012995269699 0 0.34258405725730701 0.4444034294386992 0 0.31778888742534622 0.40581751814196781 0 0.35221190152536241 0.40457127605439203 0 0.79999999999999982 0.69999999999999996 0 0.81864958914779962 0.73589050177899629 0 0.78578450296893509 0.73292684821144505 0 0.79999999999947335 0 0 0.81864958914740749 0.035890501779055867 0 0.78393852574753176 0.032039079577822822 0 0.27474541102162192 0.11822029332053539 0 0.29336099386129338 0.15892013001050981 0 0.25557216766470708 0.15874861286892261 0 0 0.45000000000187229 0 0.035463093262830522 0.42673416072819947 0 0.033550201249889847 0.46247875832467239 0 0.6499999999999998 0.69999999999999996 0 0.66427993341343905 0.73232764502436276 0 0.63221990677827677 0.73442891067859706 0 0.84723782639812573 0.48638347960178252 0 0.81441713509985358 0.51161854125224959 0 0.81400510706333218 0.47357325943904899 0 0.26104540868854792 0.81401944968719064 0 0.30857225866488791 0.81101973481716805 0 0.29209212897034281 0.84715728365233667 0 0.33403534827021109 0.84402799729020661 0 0.29209212897034281 0.84715728365233667 0 0.30857225866488791 0.81101973481716805 0 0.69999999999999984 0.29999999999999999 0 0.73090396928863699 0.33699297293167962 0 0.68887083591306764 0.33632058575757479 0 
</DataArray>
</Points>
<Cells>
<DataArray type="UInt32" Name="connectivity" format="ascii">
0 1 2 3 4 5 6 7 8 9 10 11 12 13 14 15 16 17 18 19 20 21 22 23 24 25 26 27 28 29 30 31 32 33 34 35 36 37 38 39 40 41 42 43 44 45 46 47 48 49 50 51 52 53 54 55 56 57 58 59 60 61 62 63 64 65 66 67 68 69 70 71 72 73 74 75 76 77 78 79 80 81 82 83 84 85 86 87 88 89 90 91 92 93 94 95 96 97 98 99 100 101 102 103 104 105 106 107 108 109 110 111 112 113 114 115 116 117 118 119 120 121 122 123 124 125 126 127 128 129 130 131 132 133 134 135 136 137 138 139 140 141 142 143 144 145 146 147 148 149 150 151 152 153 154 155 156 157 158 159 160 161 162 163 164 165 166 167 168 169 170 171 172 173 174 175 176 177 178 179 180 181 182 183 184 185 186 187 188 189 190 191 192 193 194 195 196 197 198 199 200 201 202 203 204 205 206 207 208 209 210 211 212 213 214 215 216 217 218 219 220 221 222 223 224 225 226 227 228 229 230 231 232 233 234 235 236 237 238 239 240 241 242 243 244 245 246 247 248 249 250 251 252 253 254 255 256 257 258 259 260 261 262 263 264 265 266 267 268 269 270 271 272 273 274 275 276 277 278 279 280 281 282 283 284 285 286 287 288 289 290 291 292 293 294 295 296 297 298 299 300 301 302 303 304 305 306 307 308 309 310 311 312 313 314 315 316 317 318 319 320 321 322 323 324 325 326 327 328 329 330 331 332 333 334 335 336 337 338 339 340 341 342 343 344 345 346 347 348 349 350 351 352 353 354 355 356 357 358 359 360 361 362 363 364 365 366 367 368 369 370 371 372 373 374 375 376 377 378 379 380 381 382 383 384 385 386 387 388 389 390 391 392 393 394 395 396 397 398 399 400 401 402 403 404 405 406 407 408 409 410 411 412 413 414 415 416 417 418 419 420 421 422 423 424 425 426 427 428 429 430 431 432 433 434 435 436 437 438 439 440 441 442 443 444 445 446 447 448 449 450 451 452 453 454 455 456 457 458 459 460 461 462 463 464 465 466 467 468 469 470 471 472 473 474 475 476 477 478 479 480 481 482 483 484 485 486 487 488 489 490 491 492 493 494 495 496 497 498 499 500 501 502 503 504 505 506 507 508 509 510 511 512 513 514 515 516 517 518 519 520 521 522 523 524 525 526 527 528 529 530 531 532 533 534 535 536 537 538 539 540 541 542 543 544 545 546 547 548 549 550 551 552 553 554 555 556 557 558 559 560 561 562 563 564 565 566 567 568 569 570 571 572 573 574 575 576 577 578 579 580 581 582 583 584 585 586 587 588 589 590 591 592 593 594 595 596 597 598 599 600 601 602 603 604 605 606 607 608 609 610 611 612 613 614 615 616 617 618 619 620 621 622 623 624 625 626 627 628 629 630 631 632 633 634 635 636 637 638 639 640 641 642 643 644 645 646 647 648 649 650 651 652 653 654 655 656 657 658 659 660 661 662 663 664 665 666 667 668 669 670 671 672 673 674 675 676 677 678 679 680 681 682 683 684 685 686 687 688 689 690 691 692 693 694 695 696 697 698 699 700 701 702 703 704 705 706 707 708 709 710 711 712 713 714 715 716 717 718 719 720 721 722 723 724 725 726 727 728 729 730 731 732 733 734 735 736 737 738 739 740 741 742 743 744 745 746 747 748 749 750 751 752 753 754 755 756 757 758 759 760 761 762 763 764 765 766 767 768 769 770 771 772 773 774 775 776 777 778 779 780 781 782 783 784 785 786 787 788 789 790 791 792 793 794 795 796 797 798 799 800 801 802 803 804 805 806 807 808 809 810 811 812 813 814 815 816 817 818 819 820 821 822 823 824 825 826 827 828 829 830 831 832 833 834 835 836 837 838 839 840 841 842 843 844 845 846 847 848 849 850 851 852 853 854 855 856 857 858 859 860 861 862 863 864 865 866 867 868 869 870 871 872 873 874 875 876 877 878 879 880 881 882 883 884 885 886 887 888 889 890 891 892 893 894 895 896 897 898 899 900 901 902 903 904 905 906 907 908 909 910 911 912 913 914 915 916 917 918 919 920 921 922 923 924 925 926 927 928 929 930 931 932 933 934 935 936 937 938 939 940 941 942 943 944 945 946 947 948 949 950 951 952 953 954 955 956 957 958 959 960 961 962 963 964 965 966 967 968 969 970 971 972 973 974 975 976 977 978 979 980 981 982 983 984 985 986 987 988 989 990 991 992 993 994 995 996 997 998 999 1000 1001 1002 1003 1004 1005 1006 1007 1008 1009 1010 1011 1012 1013 1014 1015 1016 1017 1018 1019 1020 1021 1022 1023 1024 1025 1026 1027 1028 1029 1030 1031 1032 1033 1034 1035 1036 1037 1038 1039 1040 1041 1042 1043 1044 1045 1046 1047 1048 1049 1050 1051 1052 1053 1054 1055 1056 1057 1058 1059 1060 1061 1062 1063 1064 1065 1066 1067 1068 1069 1070 1071 1072 1073 1074 1075 1076 1077 1078 1079 1080 1081 1082 1083 1084 1085 1086 1087 1088 1089 1090 1091 1092 1093 1094 1095 1096 1097 1098 1099 1100 1101 1102 1103 1104 1105 1106 1107 1108 1109 1110 1111 1112 1113 1114 1115 1116 1117 1118 1119 1120 1121 1122 1123 1124 1125 1126 1127 1128 1129 1130 1131 1132 1133 1134 1135 1136 1137 1138 1139 1140 1141 1142 1143 1144 1145 1146 1147 1148 1149 1150 1151 1152 1153 1154 1155 1156 1157 1158 1159 1160 1161 1162 1163 1164 1165 1166 1167 1168 1169 1170 1171 1172 1173 1174 1175 1176 1177 1178 1179 1180 1181 1182 1183 1184 1185 1186 1187 1188 1189 1190 1191 1192 1193 1194 1195 1196 1197 1198 1199 1200 1201 1202 1203 1204 1205 1206 1207 1208 1209 1210 1211 1212 1213 1214 1215 1216 1217 1218 1219 1220 1221 1222 1223 1224 1225 1226 1227 1228 1229 1230 1231 1232 1233 1234 1235 1236 1237 1238 1239 1240 1241 1242 1243 1244 1245 1246 1247 1248 1249 1250 1251 1252 1253 1254 1255 1256 1257 1258 1259 1260 1261 1262 1263 1264 1265 1266 1267 1268 1269 1270 1271 1272 1273 1274 1275 1276 1277 1278 1279 1280 1281 1282 1283 1284 1285 1286 1287 1288 1289 1290 1291 1292 1293 1294 1295 1296 1297 1298 1299 1300 1301 1302 1303 1304 1305 1306 1307 1308 1309 1310 1311 1312 1313 1314 1315 1316 1317 1318 1319 1320 1321 1322 1323 1324 1325 1326 1327 1328 1329 1330 1331 1332 1333 1334 1335 1336 1337 1338 1339 1340 1341 1342 1343 1344 1345 1346 1347 1348 1349 1350 1351 1352 1353 1354 1355 1356 1357 1358 1359 1360 1361 1362 1363 1364 1365 1366 1367 1368 1369 1370 1371 1372 1373 1374 1375 1376 1377 1378 1379 1380 1381 1382 1383 1384 1385 1386 1387 1388 1389 1390 1391 1392 1393 1394 1395 1396 1397 1398 1399 1400 1401 1402 1403 1404 1405 1406 1407 1408 1409 1410 1411 1412 1413 1414 1415 1416 1417 1418 1419 1420 1421 1422 1423 1424 1425 1426 1427 1428 1429 1430 1431 1432 1433 1434 1435 1436 1437 1438 1439 1440 1441 1442 1443 1444 1445 1446 1447 1448 1449 1450 1451 1452 1453 1454 1455 1456 1457 1458 1459 1460 1461 1462 1463 1464 1465 1466 1467 1468 1469 1470 1471 1472 1473 1474 1475 1476 1477 1478 1479 1480 1481 1482 1483 1484 1485 1486 1487 1488 1489 1490 1491 1492 1493 1494 1495 1496 1497 1498 1499 1500 1501 1502 1503 1504 1505 1506 1507 1508 1509 1510 1511 1512 1513 1514 1515 1516 1517 1518 1519 1520 1521 1522 1523 1524 1525 1526 1527 1528 1529 1530 1531 1532 1533 1534 1535 1536 1537 1538 1539 1540 1541 1542 1543 1544 1545 1546 1547 1548 1549 1550 1551 1552 1553 1554 1555 1556 1557 1558 1559 1560 1561 1562 1563 1564 1565 1566 1567 1568 1569 1570 1571 1572 1573 1574 1575 1576 1577 1578 1579 1580 1581 1582 1583 1584 1585 1586 1587 1588 1589 1590 1591 1592 1593 1594 1595 1596 1597 1598 1599 1600 1601 1602 1603 1604 1605 1606 1607 1608 1609 1610 1611 1612 1613 1614 1615 1616 1617 1618 1619 1620 1621 1622 1623 1624 1625 1626 1627 1628 1629 1630 1631 1632 1633 1634 1635 1636 1637 1638 1639 1640 1641 1642 1643 1644 1645 1646 1647 1648 1649 1650 1651 1652 1653 1654 1655 1656 1657 1658 1659 1660 1661 1662 1663 1664 1665 1666 1667 1668 1669 1670 1671 1672 1673 1674 1675 1676 1677 1678 1679 1680 1681 1682 1683 1684 1685 1686 1687 1688 1689 1690 1691 1692 1693 1694 1695 1696 1697 1698 1699 1700 1701 1702 1703 1704 1705 1706 1707 1708 1709 1710 1711 1712 1713 1714 1715 1716 1717 1718 1719 1720 1721 1722 1723 1724 1725 1726 1727 1728 1729 1730 1731 1732 1733 1734 1735 1736 1737 1738 1739 1740 1741 1742 1743 1744 1745 1746 1747 1748 1749 1750 1751 1752 1753 1754 1755 1756 1757 1758 1759 1760 1761 1762 1763 1764 1765 1766 1767 1768 1769 1770 1771 1772 1773 1774 1775 1776 1777 1778 1779 1780 1781 1782 1783 1784 1785 1786 1787 1788 1789 1790 1791 1792 1793 1794 1795 1796 1797 1798 1799 1800 1801 1802 1803 1804 1805 1806 1807 1808 1809 1810 1811 1812 1813 1814 1815 1816 1817 1818 1819 1820 1821 1822 1823 1824 1825 1826 1827 1828 1829 1830 1831 1832 1833 1834 1835 1836 1837 1838 1839 1840 1841 1842 1843 1844 1845 1846 1847 1848 1849 1850 1851 1852 1853 1854 1855 1856 1857 1858 1859 1860 1861 1862 1863 1864 1865 1866 1867 1868 1869 1870 1871 1872 1873 1874 1875 1876 1877 1878 1879 1880 1881 1882 1883 1884 1885 1886 1887 1888 1889 1890 1891 1892 1893 1894 1895 1896 1897 1898 1899 1900 1901 1902 1903 1904 1905 1906 1907 1908 1909 1910 1911 1912 1913 1914 1915 1916 1917 1918 1919 1920 1921 1922 1923 1924 1925 1926 1927 1928 1929 1930 1931 1932 1933 1934 1935 1936 1937 1938 1939 1940 1941 1942 1943 1944 1945 1946 1947 1948 1949 1950 1951 1952 1953 1954 1955 1956 1957 1958 1959 1960 1961 1962 1963 1964 1965 1966 1967 1968 1969 1970 1971 1972 1973 1974 1975 1976 1977 1978 1979 1980 1981 1982 1983 1984 1985 1986 1987 1988 1989 1990 1991 1992 1993 1994 1995 1996 1997 1998 1999 2000 2001 2002 2003 2004 2005 2006 2007 2008 2009 2010 2011 2012 2013 2014 2015 2016 2017 2018 2019 2020 2021 2022 2023 2024 2025 2026 2027 2028 2029 2030 2031 2032 2033 2034 2035 2036 2037 2038 2039 2040 2041 2042 2043 2044 2045 2046 2047 2048 2049 2050 2051 2052 2053 2054 2055 2056 2057 2058 2059 2060 2061 2062 2063 2064 2065 2066 2067 2068 2069 2070 2071 2072 2073 2074 2075 2076 2077 2078 2079 2080 2081 2082 2083 2084 2085 2086 2087 2088 2089 2090 2091 2092 2093 2094 2095 2096 2097 2098 2099 2100 2101 2102 2103 2104 2105 2106 2107 2108 2109 2110 2111 2112 2113 2114 2115 2116 2117 2118 2119 2120 2121 2122 2123 2124 2125 2126 2127 2128 2129 2130 2131 2132 2133 2134 2135 2136 2137 2138 2139 2140 2141 2142 2143 2144 2145 2146 2147 2148 2149 2150 2151 2152 2153 2154 2155 2156 2157 2158 2159 2160 2161 2162 2163 2164 2165 2166 2167 2168 2169 2170 2171 2172 2173 2174 2175 2176 2177 2178 2179 2180 2181 2182 2183 2184 2185 2186 2187 2188 2189 2190 2191 2192 2193 2194 2195 2196 2197 2198 2199 2200 2201 2202 2203 2204 2205 2206 2207 2208 2209 2210 2211 2212 2213 2214 2215 2216 2217 2218 2219 2220 2221 2222 2223 2224 2225 2226 2227 2228 2229 2230 2231 2232 2233 2234 2235 2236 2237 2238 2239 2240 2241 2242 2243 2244 2245 2246 2247 2248 2249 2250 2251 2252 2253 2254 2255 2256 2257 2258 2259 2260 2261 2262 2263 2264 2265 2266 2267 2268 2269 2270 2271 2272 2273 2274 2275 2276 2277 2278 2279 2280 2281 2282 2283 2284 2285 2286 2287 2288 2289 2290 2291 2292 2293 2294 2295 2296 2297 2298 2299 2300 2301 2302 2303 2304 2305 2306 2307 2308 2309 2310 2311 2312 2313 2314 2315 2316 2317 2318 2319 2320 2321 2322 2323 2324 2325 2326 2327 2328 2329 2330 2331 2332 2333 2334 2335 2336 2337 2338 2339 2340 2341 2342 2343 2344 2345 2346 2347 2348 2349 2350 2351 2352 2353 2354 2355 2356 2357 2358 2359 2360 2361 2362 2363 2364 2365 2366 2367 2368 2369 2370 2371 2372 2373 2374 2375 2376 2377 2378 2379 2380 2381 2382 2383 2384 2385 2386 2387 2388 2389 2390 2391 2392 2393 2394 2395 2396 2397 2398 2399 2400 2401 2402 2403 2404 2405 2406 2407 2408 2409 2410 2411 2412 2413 2414 2415 2416 2417 2418 2419 2420 2421 2422 2423 2424 2425 2426 2427 2428 2429 2430 2431 2432 2433 2434 2435 2436 2437 2438 2439 2440 2441 2442 2443 2444 2445 2446 2447 2448 2449 2450 2451 2452 2453 2454 2455 2456 2457 2458 2459 2460 2461 2462 2463 2464 2465 2466 2467 2468 2469 2470 2471 2472 2473 2474 2475 2476 2477 2478 2479 2480 2481 2482 2483 2484 2485 2486 2487 2488 2489 2490 2491 2492 2493 2494 2495 2496 2497 2498 2499 2500 2501 2502 2503 2504 2505 2506 2507 2508 2509 2510 2511 2512 2513 2514 2515 2516 2517 2518 2519 2520 2521 2522 2523 2524 2525 2526 2527 2528 2529 2530 2531 2532 2533 2534 2535 2536 2537 2538 2539 2540 2541 2542 2543 2544 2545 2546 2547 2548 2549 2550 2551 2552 2553 2554 2555 2556 2557 2558 2559 2560 2561 2562 2563 2564 2565 2566 2567 2568 2569 2570 2571 2572 2573 2574 2575 2576 2577 2578 2579 2580 2581 2582 2583 2584 2585 2586 2587 2588 2589 2590 2591 2592 2593 2594 2595 2596 2597 2598 2599 2600 2601 2602 2603 2604 2605 2606 2607 2608 2609 2610 2611 2612 2613 2614 2615 2616 2617 2618 2619 2620 2621 2622 2623 2624 2625 2626 2627 2628 2629 2630 2631 2632 2633 2634 2635 2636 2637 2638 2639 2640 2641 2642 2643 2644 2645 2646 2647 2648 2649 2650 2651 2652 2653 2654 2655 2656 2657 2658 2659 2660 2661 2662 2663 2664 2665 2666 2667 2668 2669 2670 2671 2672 2673 2674 2675 2676 2677 2678 2679 2680 2681 2682 2683 2684 2685 2686 2687 2688 2689 2690 2691 2692 2693 2694 2695 2696 2697 2698 2699 2700 2701 2702 2703 2704 2705 2706 2707 2708 2709 2710 2711 2712 2713 2714 2715 2716 2717 2718 2719 2720 2721 2722 2723 2724 2725 2726 2727 2728 2729 2730 2731 2732 2733 2734 2735 2736 2737 2738 2739 2740 2741 2742 2743 2744 2745 2746 2747 2748 2749 2750 2751 2752 2753 2754 2755 2756 2757 2758 2759 2760 2761 2762 2763 2764 2765 2766 2767 2768 2769 2770 2771 2772 2773 2774 2775 2776 2777 2778 2779 2780 2781 2782 2783 2784 2785 2786 2787 2788 2789 2790 2791 2792 2793 2794 2795 2796 2797 2798 2799 2800 2801 2802 2803 2804 2805 2806 2807 2808 2809 2810 2811 2812 2813 2814 2815 2816 2817 2818 2819 2820 2821 2822 2823 2824 2825 2826 2827 2828 2829 2830 2831 2832 2833 2834 2835 2836 2837 2838 2839 2840 2841 2842 2843 2844 2845 2846 2847 2848 2849 2850 2851 2852 2853 2854 2855 2856 2857 2858 2859 2860 2861 2862 2863 2864 2865 2866 2867 2868 2869 2870 2871 2872 2873 2874 2875 2876 2877 2878 2879 2880 2881 2882 2883 2884 2885 2886 2887 2888 2889 2890 2891 2892 2893 2894 2895 2896 2897 2898 2899 2900 2901 2902 2903 2904 2905 2906 2907 2908 2909 2910 2911 2912 2913 2914 2915 2916 2917 2918 2919 2920 2921 2922 2923 2924 2925 2926 2927 2928 2929 2930 2931 2932 2933 2934 2935 2936 2937 2938 2939 2940 2941 2942 2943 2944 2945 2946 2947 2948 2949 2950 2951 2952 2953 2954 2955 2956 2957 2958 2959 2960 2961 2962 2963 2964 2965 2966 2967 2968 2969 2970 2971 2972 2973 2974 2975 2976 2977 2978 2979 2980 2981 2982 2983 2984 2985 2986 2987 2988 2989 2990 2991 2992 2993 2994 2995 2996 2997 2998 2999 3000 3001 3002 3003 3004 3005 3006 3007 3008 3009 3010 3011 3012 3013 3014 3015 3016 3017 3018 3019 3020 3021 3022 3023 3024 3025 3026 3027 3028 3029 3030 3031 3032 3033 3034 3035 3036 3037 3038 3039 3040 3041 3042 3043 3044 3045 3046 3047 3048 3049 3050 3051 3052 3053 3054 3055 3056 3057 3058 3059 3060 3061 3062 3063 3064 3065 3066 3067 3068 3069 3070 3071 3072 3073 3074 3075 3076 3077 3078 3079 3080 3081 3082 3083 3084 3085 3086 3087 3088 3089 3090 3091 3092 3093 3094 3095 3096 3097 3098 3099 3100 3101 3102 3103 3104 3105 3106 3107 3108 3109 3110 3111 3112 3113 3114 3115 3116 3117 3118 3119 3120 3121 3122 3123 3124 3125 3126 3127 3128 3129 3130 3131 3132 3133 3134 3135 3136 3137 3138 3139 3140 3141 
</DataArray>
<DataArray type="UInt32" Name="offsets" format="ascii">
2 4 6 8 10 12 14 16 18 20 22 24 26 28 30 32 34 36 38 40 43 46 49 52 55 58 61 64 67 70 73 76 79 82 85 88 91 94 97 100 103 106 109 112 115 118 121 124 127 130 133 136 139 142 145 148 151 154 157 160 163 166 169 172 175 178 181 184 187 190 193 196 199 202 205 208 211 214 217 220 223 226 229 232 235 238 241 244 247 250 253 256 259 262 265 268 271 274 277 280 283 286 289 292 295 298 301 304 307 310 313 316 319 322 325 328 331 334 337 340 343 346 349 352 355 358 361 364 367 370 373 376 379 382 385 388 391 394 397 400 403 406 409 412 415 418 421 424 427 430 433 436 439 442 445 448 451 454 457 460 463 466 469 472 475 478 481 484 487 490 493 496 499 502 505 508 511 514 517 520 523 526 529 532 535 538 541 544 547 550 553 556 559 562 565 568 571 574 577 580 583 586 589 592 595 598 601 604 607 610 613 616 619 622 625 628 631 634 637 640 643 646 649 652 655 658 661 664 667 670 673 676 679 682 685 688 691 694 697 700 703 706 709 712 715 718 721 724 727 730 733 736 739 742 745 748 751 754 757 760 763 766 769 772 775 778 781 784 787 790 793 796 799 802 805 808 811 814 817 820 823 826 829 832 835 838 841 844 847 850 853 856 859 862 865 868 871 874 877 880 883 886 889 892 895 898 901 904 907 910 913 916 919 922 925 928 931 934 937 940 943 946 949 952 955 958 961 964 967 970 973 976 979 982 985 988 991 994 997 1000 1003 1006 1009 1012 1015 1018 1021 1024 1027 1030 1033 1036 1039 1042 1045 1048 1051 1054 1057 1060 1063 1066 1069 1072 1075 1078 1081 1084 1087 1090 1093 1096 1099 1102 1105 1108 1111 1114 1117 1120 1123 1126 1129 1132 1135 1138 1141 1144 1147 1150 1153 1156 1159 1162 1165 1168 1171 1174 1177 1180 1183 1186 1189 1192 1195 1198 1201 1204 1207 1210 1213 1216 1219 1222 1225 1228 1231 1234 1237 1240 1243 1246 1249 1252 1255 1258 1261 1264 1267 1270 1273 1276 1279 1282 1285 1288 1291 1294 1297 1300 1303 1306 1309 1312 1315 1318 1321 1324 1327 1330 1333 1336 1339 1342 1345 1348 1351 1354 1357 1360 1363 1366 1369 1372 1375 1378 1381 1384 1387 1390 1393 1396 1399 1402 1405 1408 1411 1414 1417 1420 1423 1426 1429 1432 1435 1438 1441 1444 1447 1450 1453 1456 1459 1462 1465 1468 1471 1474 1477 1480 1483 1486 1489 1492 1495 1498 1501 1504 1507 1510 1513 1516 1519 1522 1525 1528 1531 1534 1537 1540 1543 1546 1549 1552 1555 1558 1561 1564 1567 1570 1573 1576 1579 1582 1585 1588 1591 1594 1597 1600 1603 1606 1609 1612 1615 1618 1621 1624 1627 1630 1633 1636 1639 1642 1645 1648 1651 1654 1657 1660 1663 1666 1669 1672 1675 1678 1681 1684 1687 1690 1693 1696 1699 1702 1705 1708 1711 1714 1717 1720 1723 1726 1729 1732 1735 1738 1741 1744 1747 1750 1753 1756 1759 1762 1765 1768 1771 1774 1777 1780 1783 1786 1789 1792 1795 1798 1801 1804 1807 1810 1813 1816 1819 1822 1825 1828 1831 1834 1837 1840 1843 1846 1849 1852 1855 1858 1861 1864 1867 1870 1873 1876 1879 1882 1885 1888 1891 1894 1897 1900 1903 1906 1909 1912 1915 1918 1921 1924 1927 1930 1933 1936 1939 1942 1945 1948 1951 1954 1957 1960 1963 1966 1969 1972 1975 1978 1981 1984 1987 1990 1993 1996 1999 2002 2005 2008 2011 2014 2017 2020 2023 2026 2029 2032 2035 2038 2041 2044 2047 2050 2053 2056 2059 2062 2065 2068 2071 2074 2077 2080 2083 2086 2089 2092 2095 2098 2101 2104 2107 2110 2113 2116 2119 2122 2125 2128 2131 2134 2137 2140 2143 2146 2149 2152 2155 2158 2161 2164 2167 2170 2173 2176 2179 2182 2185 2188 2191 2194 2197 2200 2203 2206 2209 2212 2215 2218 2221 2224 2227 2230 2233 2236 2239 2242 2245 2248 2251 2254 2257 2260 2263 2266 2269 2272 2275 2278 2281 2284 2287 2290 2293 2296 2299 2302 2305 2308 2311 2314 2317 2320 2323 2326 2329 2332 2335 2338 2341 2344 2347 2350 2353 2356 2359 2362 2365 2368 2371 2374 2377 2380 2383 2386 2389 2392 2395 2398 2401 2404 2407 2410 2413 2416 2419 2422 2425 2428 2431 2434 2437 2440 2443 2446 2449 2452 2455 2458 2461 2464 2467 2470 2473 2476 2479 2482 2485 2488 2491 2494 2497 2500 2503 2506 2509 2512 2515 2518 2521 2524 2527 2530 2533 2536 2539 2542 2545 2548 2551 2554 2557 2560 2563 2566 2569 2572 2575 2578 2581 2584 2587 2590 2593 2596 2599 2602 2605 2608 2611 2614 2617 2620 2623 2626 2629 2632 2635 2638 2641 2644 2647 2650 2653 2656 2659 2662 2665 2668 2671 2674 2677 2680 2683 2686 2689 2692 2695 2698 2701 2704 2707 2710 2713 2716 2719 2722 2725 2728 2731 2734 2737 2740 2743 2746 2749 2752 2755 2758 2761 2764 2767 2770 2773 2776 2779 2782 2785 2788 2791 2794 2797 2800 2803 2806 2809 2812 2815 2818 2821 2824 2827 2830 2833 2836 2839 2842 2845 2848 2851 2854 2857 2860 2863 2866 2869 2872 2875 2878 2881 2884 2887 2890 2893 2896 2899 2902 2905 2908 2911 2914 2917 2920 2923 2926 2929 2932 2935 2938 2941 2944 2947 2950 2953 2956 2959 2962 2965 2968 2971 2974 2977 2980 2983 2986 2989 2992 2995 2998 3001 3004 3007 3010 3013 3016 3019 3022 3025 3028 3031 3034 3037 3040 3043 3046 3049 3052 3055 3058 3061 3064 3067 3070 3073 3076 3079 3082 3085 3088 3091 3094 3097 3100 3103 3106 3109 3112 3115 3118 3121 3124 3127 3130 3133 3136 3139 3142 
</DataArray>
<DataArray type="UInt32" Name="types" format="ascii">
3 3 3 3 3 3 3 3 3 3 3 3 3 3 3 3 3 3 3 3 5 5 5 5 5 5 5 5 5 5 5 5 5 5 5 5 5 5 5 5 5 5 5 5 5 5 5 5 5 5 5 5 5 5 5 5 5 5 5 5 5 5 5 5 5 5 5 5 5 5 5 5 5 5 5 5 5 5 5 5 5 5 5 5 5 5 5 5 5 5 5 5 5 5 5 5 5 5 5 5 5 5 5 5 5 5 5 5 5 5 5 5 5 5 5 5 5 5 5 5 5 5 5 5 5 5 5 5 5 5 5 5 5 5 5 5 5 5 5 5 5 5 5 5 5 5 5 5 5 5 5 5 5 5 5 5 5 5 5 5 5 5 5 5 5 5 5 5 5 5 5 5 5 5 5 5 5 5 5 5 5 5 5 5 5 5 5 5 5 5 5 5 5 5 5 5 5 5 5 5 5 5 5 5 5 5 5 5 5 5 5 5 5 5 5 5 5 5 5 5 5 5 5 5 5 5 5 5 5 5 5 5 5 5 5 5 5 5 5 5 5 5 5 5 5 5 5 5 5 5 5 5 5 5 5 5 5 5 5 5 5 5 5 5 5 5 5 5 5 5 5 5 5 5 5 5 5 5 5 5 5 5 5 5 5 5 5 5 5 5 5 5 5 5 5 5 5 5 5 5 5 5 5 5 5 5 5 5 5 5 5 5 5 5 5 5 5 5 5 5 5 5 5 5 5 5 5 5 5 5 5 5 5 5 5 5 5 5 5 5 5 5 5 5 5 5 5 5 5 5 5 5 5 5 5 5 5 5 5 5 5 5 5 5 5 5 5 5 5 5 5 5 5 5 5 5 5 5 5 5 5 5 5 5 5 5 5 5 5 5 5 5 5 5 5 5 5 5 5 5 5 5 5 5 5 5 5 5 5 5 5 5 5 5 5 5 5 5 5 5 5 5 5 5 5 5 5 5 5 5 5 5 5 5 5 5 5 5 5 5 5 5 5 5 5 5 5 5 5 5 5 5 5 5 5 5 5 5 5 5 5 5 5 5 5 5 5 5 5 5 5 5 5 5 5 5 5 5 5 5 5 5 5 5 5 5 5 5 5 5 5 5 5 5 5 5 5 5 5 5 5 5 5 5 5 5 5 5 5 5 5 5 5 5 5 5 5 5 5 5 5 5 5 5 5 5 5 5 5 5 5 5 5 5 5 5 5 5 5 5 5 5 5 5 5 5 5 5 5 5 5 5 5 5 5 5 5 5 5 5 5 5 5 5 5 5 5 5 5 5 5 5 5 5 5 5 5 5 5 5 5 5 5 5 5 5 5 5 5 5 5 5 5 5 5 5 5 5 5 5 5 5 5 5 5 5 5 5 5 5 5 5 5 5 5 5 5 5 5 5 5 5 5 5 5 5 5 5 5 5 5 5 5 5 5 5 5 5 5 5 5 5 5 5 5 5 5 5 5 5 5 5 5 5 5 5 5 5 5 5 5 5 5 5 5 5 5 5 5 5 5 5 5 5 5 5 5 5 5 5 5 5 5 5 5 5 5 5 5 5 5 5 5 5 5 5 5 5 5 5 5 5 5 5 5 5 5 5 5 5 5 5 5 5 5 5 5 5 5 5 5 5 5 5 5 5 5 5 5 5 5 5 5 5 5 5 5 5 5 5 5 5 5 5 5 5 5 5 5 5 5 5 5 5 5 5 5 5 5 5 5 5 5 5 5 5 5 5 5 5 5 5 5 5 5 5 5 5 5 5 5 5 5 5 5 5 5 5 5 5 5 5 5 5 5 5 5 5 5 5 5 5 5 5 5 5 5 5 5 5 5 5 5 5 5 5 5 5 5 5 5 5 5 5 5 5 5 5 5 5 5 5 5 5 5 5 5 5 5 5 5 5 5 5 5 5 5 5 5 5 5 5 5 5 5 5 5 5 5 5 5 5 5 5 5 5 5 5 5 5 5 5 5 5 5 5 5 5 5 5 5 5 5 5 5 5 5 5 5 5 5 5 5 5 5 5 5 5 5 5 5 5 5 5 5 5 5 5 5 5 5 5 5 5 5 5 5 5 5 5 5 5 5 5 5 5 5 5 5 5 5 5 5 5 5 5 5 5 5 5 5 5 5 5 5 5 5 5 5 5 5 5 5 5 5 5 5 5 5 5 5 5 5 5 5 5 5 5 5 5 5 5 5 5 5 5 5 5 5 5 5 5 5 5 5 5 5 5 5 5 5 5 5 5 5 5 5 5 5 5 5 5 5 5 5 5 5 5 5 5 5 5 5 5 5 5 5 5 5 5 5 5 5 5 5 5 5 5 5 5 5 5 5 5 5 5 5 5 5 5 5 5 5 5 5 5 5 5 5 5 5 5 5 5 
</DataArray>
</Cells>
<PointData Scalars="" Vectors="displacement," Tensors="">
<DataArray type="Float64" Name="displacement" NumberOfComponents="3" format="ascii">
-3.0022672382676973e-05 -2.7163370601897946e-05 0 -3.2351250204462687e-05 -3.5545387715998676e-05 0 -3.2351250204462687e-05 -3.5545387715998676e-05 0 -3.5028699670384812e-05 -4.492170364604622e-05 0 -3.5028699670384812e-05 -4.492170364604622e-05 0 -3.7974748105513524e-05 -5.5608862789714531e-05 0 -3.7974748105513524e-05 -5.5608862789714531e-05 0 -4.0677481379102517e-05 -6.6527222402733947e-05 0 -4.0677481379102517e-05 -6.6527222402733947e-05 0 -4.3053780570881731e-05 -7.7300173981432148e-05 0 -4.3053780570881731e-05 -7.7300173981432148e-05 0 -4.5296050943058191e-05 -8.7771320818221595e-05 0 -4.5296050943058191e-05 -8.7771320818221595e-05 0 -4.7527590228694642e-05 -9.7678623935426608e-05 0 -4.7527590228694642e-05 -9.7678623935426608e-05 0 -4.9774095530353154e-05 -0.00010698693235032868 0 -4.9774095530353154e-05 -0.00010698693235032868 0 -5.122111499927878e-05 -0.00011502269740878664 0 -5.122111499927878e-05 -0.00011502269740878664 0 -5.55430484166334e-05 -0.00012306053551047223 0 -5.2783859038700303e-06 2.9807739470585914e-05 0 -8.6337992337948842e-07 4.5682595907437525e-05 0 -8.6337992337948842e-07 4.5682595907437525e-05 0 -2.8390388567027381e-06 5.3657366292062211e-05 0 -2.8390388567027381e-06 5.3657366292062211e-05 0 -5.1098645068654692e-06 6.8287325089881466e-05 0 -5.1098645068654692e-06 6.8287325089881466e-05 0 -7.757744680373637e-06 8.1455429911817692e-05 0 -7.757744680373637e-06 8.1455429911817692e-05 0 -1.0711385542111248e-05 9.5726874673039114e-05 0 -1.0711385542111248e-05 9.5726874673039114e-05 0 -1.395562257653451e-05 0.00010985332722141757 0 -1.395562257653451e-05 0.00010985332722141757 0 -1.7216081234278452e-05 0.00012326647299011444 0 -1.7216081234278452e-05 0.00012326647299011444 0 -2.2076114447694052e-05 0.00013763545089014688 0 -2.2076114447694052e-05 0.00013763545089014688 0 -2.1125678514827025e-05 0.00014898951171974601 0 -2.1125678514827025e-05 0.00014898951171974601 0 -4.2800470765254927e-05 0.00016302766932410013 0 -2.4862050168724193e-05 -1.298479493448533e-05 0 -1.918949407336087e-05 -6.8124798319519157e-06 0 -2.2906350346335195e-05 -1.1767510910474047e-05 0 -2.2564424281822596e-05 -8.8219900825216942e-06 0 -1.918949407336087e-05 -6.8124798319519157e-06 0 -2.4862050168724193e-05 -1.298479493448533e-05 0 -4.1292234848564339e-05 -2.1297214374648725e-05 0 -3.6787199067694104e-05 -1.6726673903094731e-05 0 -3.7512435748389875e-05 -2.1153661538712067e-05 0 -3.7512435748389875e-05 -2.1153661538712067e-05 0 -3.6787199067694104e-05 -1.6726673903094731e-05 0 -3.3791967070724995e-05 -1.9409836698961637e-05 0 -1.8832114490553487e-05 6.6516273358601735e-06 0 -8.2066781124267428e-06 1.9730065880146894e-06 0 -1.7025812307787258e-05 4.1043619411151363e-06 0 -1.4869942222977484e-05 -7.1693976658793259e-06 0 -1.313035759284579e-05 -5.3700595493379739e-06 0 -6.3953890336794002e-06 -2.6821333380858787e-06 0 -9.7766253367344217e-06 4.6900292563215619e-06 0 -8.2066781124267428e-06 1.9730065880146894e-06 0 -1.8832114490553487e-05 6.6516273358601735e-06 0 -8.0159007694249415e-06 -4.6868861797775245e-06 0 -1.4869942222977484e-05 -7.1693976658793259e-06 0 -6.3953890336794002e-06 -2.6821333380858787e-06 0 -3.6065857994146394e-05 -1.5042796903512986e-05 0 -4.3555986470758709e-05 -1.8851604327550289e-05 0 -3.4698014701605634e-05 -1.3960424722559806e-05 0 -6.2639937297110404e-05 2.1176215247646501e-05 0 -5.0233844241774435e-05 1.5284647386528908e-05 0 -4.9352889658997355e-05 1.4237897046696061e-05 0 -5.8082738861881246e-06 6.2951315908277338e-07 0 -7.4514917664474855e-06 1.722633800934815e-06 0 -7.2538937099620948e-06 5.4112842928326454e-07 0 -9.6547770013033329e-06 2.7050896350976586e-06 0 -7.2538937099620948e-06 5.4112842928326454e-07 0 -7.4514917664474855e-06 1.722633800934815e-06 0 -8.1872802234878396e-06 -8.7629282243366624e-07 0 -1.0899698236806114e-05 -1.8939724615932108e-06 0 -7.8510991795469264e-06 -5.4676969145268422e-07 0 -3.4848764388691166e-09 -6.7483367109337731e-10 0 -2.840548283294774e-09 -4.8266425245631549e-10 0 -3.0768138768884874e-06 -1.0076122181615236e-06 0 -2.9008936861690884e-09 2.052360123446705e-10 0 -3.3157101370200464e-09 1.9659142185774936e-10 0 -3.1405953755621697e-06 1.6046648521760926e-07 0 -4.6127240594104204e-05 -2.7128677802818448e-05 0 -4.6276958985155238e-05 -2.6924997059438845e-05 0 -4.1292234848564339e-05 -2.1297214374648725e-05 0 -7.1226949168964939e-06 3.3498346074890645e-05 0 -1.2748545580243535e-05 2.2109129965786205e-05 0 -1.5642385641872013e-05 2.1960211643929104e-05 0 -6.9780841162976715e-05 -0.0001885483708605342 0 -5.9887180265436812e-05 -0.00017689931324758803 0 -6.9541885905816009e-05 -0.00017315686263741728 0 -8.5197217463873953e-05 0.00038604973107947665 0 -0.00010985080854159384 0.00036104399237270866 0 -8.4688916526567978e-05 0.00035062399925420861 0 -8.5197217463873953e-05 0.00038604973107947665 0 -8.4688916526567978e-05 0.00035062399925420861 0 -6.0861001924484686e-05 0.00035893486163162747 0 -6.9780841162976715e-05 -0.0001885483708605342 0 -6.9541885905816009e-05 -0.00017315686263741728 0 -8.0120276521561751e-05 -0.00017769423136950602 0 -0.00011404800609746952 0.00033154730354054894 0 -8.1912282232541697e-05 0.00031648555249909821 0 -8.4688916526567978e-05 0.00035062399925420861 0 -5.7360547387937732e-05 -0.00016334229471700178 0 -6.9515695539199303e-05 -0.00015740177554514489 0 -6.9541885905816009e-05 -0.00017315686263741728 0 -8.1872802234878396e-06 -8.7629282243366624e-07 0 -7.8510991795469264e-06 -5.4676969145268422e-07 0 -5.5263058635593913e-06 -6.7800761302013838e-08 0 -7.1226949168964939e-06 3.3498346074890645e-05 0 -1.8747223574476022e-05 3.0977712446969609e-05 0 -1.2748545580243535e-05 2.2109129965786205e-05 0 -0.00013471861951940876 0.00010478415578265497 0 -0.00012166625798358393 7.9268487522436443e-05 0 -9.9865150282187973e-05 8.4530613651394854e-05 0 -7.6417640193989438e-05 -4.7709333189066357e-05 0 -8.3760931762903173e-05 -5.9348143881756785e-05 0 -6.7268052391425298e-05 -5.0167067603706076e-05 0 -3.9637793274687007e-05 -2.2993408853745518e-05 0 -4.6127240594104204e-05 -2.7128677802818448e-05 0 -4.1292234848564339e-05 -2.1297214374648725e-05 0 -7.1683697841749553e-05 6.9406053934948256e-05 0 -6.2557296536625392e-05 4.3641066227111297e-05 0 -5.2412011965905601e-05 4.6011845663766759e-05 0 -3.765213505410837e-05 1.5644546711663267e-05 0 -4.9382062423666512e-05 2.2078747038655817e-05 0 -4.5997949420527467e-05 1.4912305905451427e-05 0 -3.130023607641085e-05 -6.2992571061834216e-06 0 -2.7465051043048808e-05 -1.3518783702741429e-06 0 -3.3414341923082942e-05 -9.8143323817266762e-06 0 -6.7565896926899554e-05 -0.00014089060064773943 0 -5.8243256710291938e-05 -0.00013556373015713948 0 -6.7037837002039891e-05 -0.00012310020679287924 0 -8.1745676057103824e-05 0.00028182149131920529 0 -0.00010251088441317339 0.00027219390749528384 0 -7.5916726886214925e-05 0.00024272446073497016 0 -6.7037837002039891e-05 -0.00012310020679287924 0 -5.8243256710291938e-05 -0.00013556373015713948 0 -5.6256690577952588e-05 -0.00012019686796968769 0 -7.5916726886214925e-05 0.00024272446073497016 0 -0.00010251088441317339 0.00027219390749528384 0 -0.00010078504022191285 0.00024345837790053384 0 -3.765213505410837e-05 1.5644546711663267e-05 0 -4.5997949420527467e-05 1.4912305905451427e-05 0 -3.3281058064368365e-05 1.0438432832444852e-05 0 -3.208805225755656e-05 -1.1909613308061334e-05 0 -2.719678057315952e-05 1.3859777192014743e-06 0 -3.130023607641085e-05 -6.2992571061834216e-06 0 -7.1683697841749553e-05 6.9406053934948256e-05 0 -8.0538482681499079e-05 6.0310000582765834e-05 0 -6.2557296536625392e-05 4.3641066227111297e-05 0 -7.1226949168964939e-06 3.3498346074890645e-05 0 5.4913826402431478e-06 8.5515465079915101e-05 0 -2.1839327062762546e-05 8.9069964929868779e-05 0 -6.1956838241882374e-05 -6.0814063378331809e-05 0 -5.680952463808679e-05 -5.6275169933495239e-05 0 -6.2132095367862337e-05 -5.8038763960615311e-05 0 -4.4167226397842923e-05 -5.4607766805710888e-05 0 -4.263357704931798e-05 -5.2002985580843623e-05 0 -4.413308528503248e-05 -5.6578343663353146e-05 0 -2.3556401313767278e-05 5.6639203224193617e-06 0 -2.7465051043048808e-05 -1.3518783702741429e-06 0 -3.130023607641085e-05 -6.2992571061834216e-06 0 -3.8179275122058498e-05 -0.00016971748923651938 0 -4.6379951111232501e-05 -0.0001595141524221948 0 -4.9923503896861611e-05 -0.00017261718107672316 0 -0.00017014932957025414 0.00035898335543732291 0 -0.00014274002588683863 0.00032852038269396046 0 -0.00013723237302310361 0.00035538835561055033 0 -2.4261704738536148e-09 -3.7966055753291792e-10 0 -2.0721991555517084e-06 -3.9900978640720695e-07 0 -2.2814550813938145e-06 -6.9512683268939128e-07 0 -2.5997052740118877e-09 2.2993205005648145e-10 0 -2.5521658644709365e-06 2.6628253144816899e-07 0 -2.4255710300850437e-06 3.4163319122953519e-07 0 -7.1683697841749553e-05 6.9406053934948256e-05 0 -5.2948725152361459e-05 6.6170391848284911e-05 0 -6.7619890677561616e-05 9.9389151133060392e-05 0 -4.3636762095548215e-05 8.7993071921029715e-05 0 -6.7619890677561616e-05 9.9389151133060392e-05 0 -5.2948725152361459e-05 6.6170391848284924e-05 0 -2.7063622743591237e-05 5.5576372588689696e-05 0 -7.1226949168964939e-06 3.3498346074890645e-05 0 -2.1839327062762546e-05 8.9069964929868779e-05 0 -0.00016998470136569949 0.00029814959434744739 0 -0.00013108403957170283 0.00029886641473785003 0 -0.00014274002588683863 0.00032852038269396046 0 -3.2803654326266791e-05 -0.0001409416966502549 0 -4.8794608862235634e-05 -0.00014620425891258054 0 -4.6379951111232501e-05 -0.0001595141524221948 0 -4.3503310038304458e-05 -5.0316636513477645e-05 0 -4.3660805036986284e-05 -4.6765953361229185e-05 0 -4.6483755427877894e-05 -5.0518550808816811e-05 0 -3.0445549637744024e-05 -6.4635514474337147e-06 0 -3.3414341923082942e-05 -9.8143323817266762e-06 0 -2.7465051043048808e-05 -1.3518783702741429e-06 0 -3.6814693200922808e-05 -1.6001447699182707e-05 0 -3.9733587070702172e-05 -2.1972304306606398e-05 0 -3.6857466862173855e-05 -2.1446629905896423e-05 0 -3.2050572271300531e-05 -3.2079580158768359e-05 0 -3.200270126971028e-05 -2.8264236683940868e-05 0 -3.7141479194656045e-05 -3.4525778394961869e-05 0 -0.0001554712705347793 0.00016605914999883961 0 -0.00012278247065789776 0.00014456217848047908 0 -0.00013445282145692447 0.00018444999371018466 0 -0.00010638325706531313 -0.00014903205269551552 0 -9.4500908694637541e-05 -0.00016329099812460704 0 -8.9972708600300559e-05 -0.00015020907406026522 0 6.7388306659338216e-07 0.00028458943053450829 0 -2.8202883166099438e-05 0.00032239718588432197 0 -3.4073699995915043e-05 0.00029561937478772251 0 -3.5490175627933414e-05 -0.00015527652695512806 0 -4.6379951111232501e-05 -0.0001595141524221948 0 -3.8179275122058498e-05 -0.00016971748923651938 0 -0.00017014932957025414 0.00035898335543732291 0 -0.00017027275319960369 0.00032903943152350345 0 -0.00014274002588683863 0.00032852038269396046 0 -5.343956705632563e-05 -4.9768070216134592e-05 0 -5.3954503036428009e-05 -4.6071414210493595e-05 0 -5.6633735673222364e-05 -5.0761423379337676e-05 0 -3.0287261346430936e-05 -2.7422056478874829e-05 0 -3.4278294221845258e-05 -3.2706568553640401e-05 0 -3.5860493588830167e-05 -4.5540011330417284e-05 0 -5.343956705632563e-05 -4.9768070216134592e-05 0 -5.1346105682233119e-05 -4.6069064913895327e-05 0 -5.3954503036428009e-05 -4.6071414210493595e-05 0 -3.595944615515738e-05 -2.8834742319336231e-05 0 -3.7141479194656045e-05 -3.4525778394961869e-05 0 -3.200270126971028e-05 -2.8264236683940868e-05 0 -5.8335882678421135e-05 -7.4783135892412508e-05 0 -6.262216700656969e-05 -9.4249674481313898e-05 0 -5.105397582655409e-05 -7.8919532075714062e-05 0 -4.7821376894999168e-09 3.1064875540989994e-10 0 -6.3953890336794002e-06 -2.6821333380858787e-06 0 -4.4470680854570195e-06 -1.1481711213682713e-06 0 -6.242033763555068e-09 -7.4893479561303304e-10 0 -5.6089894575218826e-06 1.6276317305212072e-07 0 -8.2066781124267428e-06 1.9730065880146894e-06 0 -6.1956838241882374e-05 -6.0814063378331809e-05 0 -5.6962144058111503e-05 -5.9930784729090591e-05 0 -5.680952463808679e-05 -5.6275169933495239e-05 0 -4.4807851386351501e-05 -5.7708539920289478e-05 0 -4.4167226397842923e-05 -5.4607766805710888e-05 0 -4.413308528503248e-05 -5.6578343663353146e-05 0 -4.8270660595671788e-09 -1.0403877164392101e-09 0 -7.3394508586789859e-06 -4.5593856179028276e-07 0 -5.6089894575218818e-06 1.6276317305212025e-07 0 -4.0267187973490226e-09 3.1498885025320847e-10 0 -4.4470680854570195e-06 -1.1481711213682713e-06 0 -6.0474279352823763e-06 -1.0862308231680064e-06 0 -7.2538937099620948e-06 5.4112842928326454e-07 0 -5.3096401798544285e-06 -8.3193794175839711e-07 0 -5.2127556976600962e-06 -1.1606381113894666e-07 0 -2.1654840321686258e-05 -9.4596217657831812e-06 0 -1.796878743575833e-05 -6.595749055760124e-06 0 -1.313035759284579e-05 -5.3700595493379739e-06 0 -2.8385403193178639e-05 8.6188240546431646e-06 0 -1.7025812307787262e-05 4.1043619411151363e-06 0 -2.3582669593880467e-05 4.7381848902475782e-06 0 -4.1610895631848521e-05 -3.4696657042178824e-05 0 -3.9346285062103241e-05 -2.9593550902772137e-05 0 -4.3413531912533882e-05 -3.2237107398284889e-05 0 -4.0773791187373813e-05 -2.6900219865280455e-05 0 -3.6857466862173855e-05 -2.1446629905896423e-05 0 -3.9733587070702172e-05 -2.1972304306606398e-05 0 -6.8218478086621547e-06 0.00034490735165628198 0 -3.5917379373186073e-05 0.00034978175141346185 0 -2.8202883166099438e-05 0.00032239718588432197 0 -0.00010661851583867752 -0.00017676335538291163 0 -9.1982639578649198e-05 -0.00017513765594403711 0 -9.4500908694637541e-05 -0.00016329099812460704 0 -4.0773791187373813e-05 -2.6900219865280455e-05 0 -4.3413531912533882e-05 -3.2237107398284889e-05 0 -3.9346285062103241e-05 -2.9593550902772137e-05 0 -4.3660805036986284e-05 -4.6765953361229185e-05 0 -4.0335602130950771e-05 -4.4827198568004355e-05 0 -4.2132906563236558e-05 -4.114364383408315e-05 0 -0.00010123166957489872 0.00021349640320827507 0 -8.9903818886440424e-05 0.00017110817076439509 0 -7.3096552985673263e-05 0.00018603817947323995 0 -6.242033763555068e-09 -7.4893479561303304e-10 0 -6.7158138695695876e-09 5.3663561026384798e-10 0 -5.6089894575218818e-06 1.6276317305212025e-07 0 -5.3163861502259693e-09 -8.021027714508814e-10 0 -4.7821376894999168e-09 3.1064875540989994e-10 0 -4.4470680854570195e-06 -1.1481711213682713e-06 0 -7.2538937099620948e-06 5.4112842928326454e-07 0 -8.4060333647514952e-06 9.9816715758879315e-08 0 -5.3096401798544285e-06 -8.3193794175839711e-07 0 -5.518116677038064e-05 0.00032861014071896579 0 -8.4688916526567978e-05 0.00035062399925420861 0 -8.1912282232541697e-05 0.00031648555249909821 0 -8.1825415915305299e-05 -0.00016407299638606182 0 -6.9541885905816009e-05 -0.00017315686263741728 0 -6.9515695539199303e-05 -0.00015740177554514489 0 -6.262216700656969e-05 -9.4249674481313898e-05 0 -5.2828921464344941e-05 -9.4076307707075516e-05 0 -5.105397582655409e-05 -7.8919532075714062e-05 0 -3.1808422811856362e-06 1.7001666598913059e-07 0 -4.5340309272611913e-06 4.2713017420782719e-07 0 -4.1958585151089897e-06 2.1792424950816057e-07 0 -2.1542079376979603e-05 3.7287393792717881e-06 0 -1.7472259709866458e-05 3.260430425577512e-06 0 -2.4755304518476881e-05 6.4797945776726427e-06 0 -4.0335602130950771e-05 -4.4827198568004355e-05 0 -3.8445839646196194e-05 -4.020139711043769e-05 0 -4.2132906563236558e-05 -4.114364383408315e-05 0 -4.1958585151089897e-06 2.1792424950816057e-07 0 -4.5340309272611913e-06 4.2713017420782719e-07 0 -5.377256091605406e-06 6.3411199214381368e-07 0 -4.5340309272611913e-06 4.2713017420782719e-07 0 -2.6524030427024029e-06 2.6035201079802967e-07 0 -4.599524368185214e-06 3.7071939382957882e-07 0 -3.3476194404408495e-06 3.5893749075472008e-07 0 -4.599524368185214e-06 3.7071939382957882e-07 0 -2.6524030427024029e-06 2.6035201079802967e-07 0 -5.7040658046951371e-05 -4.898363719737119e-05 0 -5.3954503036428009e-05 -4.6071414210493595e-05 0 -5.6075372231295179e-05 -4.5057705348049349e-05 0 -3.6814693200922808e-05 -1.6001447699182707e-05 0 -3.6857466862173849e-05 -2.1446629905896419e-05 0 -3.4466382270566796e-05 -1.3897289165168822e-05 0 -4.3503310038304458e-05 -5.0316636513477645e-05 0 -4.0335602130950771e-05 -4.4827198568004355e-05 0 -4.3660805036986284e-05 -4.6765953361229185e-05 0 -2.3556401313767278e-05 5.6639203224193617e-06 0 -3.130023607641085e-05 -6.2992571061834199e-06 0 -2.719678057315952e-05 1.3859777192014743e-06 0 -3.0006468037386997e-06 0.00031455406050555406 0 -6.8218478086621547e-06 0.00034490735165628198 0 -2.8202883166099438e-05 0.00032239718588432197 0 -0.00010667140507561556 -0.00016324171204026001 0 -0.00010661851583867752 -0.00017676335538291163 0 -9.4500908694637541e-05 -0.00016329099812460704 0 -0.00010638325706531313 -0.00014903205269551552 0 -0.00010667140507561556 -0.00016324171204026001 0 -9.4500908694637541e-05 -0.00016329099812460704 0 6.7388306659338216e-07 0.00028458943053450829 0 -3.0006468037386997e-06 0.00031455406050555406 0 -2.8202883166099438e-05 0.00032239718588432197 0 -1.7868987524613029e-05 1.1574732335707591e-05 0 -1.7346236650932089e-05 8.7706023032001894e-06 0 -2.3556401313767278e-05 5.6639203224193617e-06 0 -8.0466441990622096e-06 -3.81587162482793e-07 0 -5.3065423881294596e-06 1.8807663198930818e-07 0 -7.8510991795469264e-06 -5.4676969145268422e-07 0 -4.5644080411602558e-06 2.0140075293842835e-07 0 -7.8510991795469264e-06 -5.4676969145268422e-07 0 -5.3065423881294596e-06 1.8807663198930818e-07 0 -2.4025781447017726e-05 0.00018669058340640835 0 -1.7110702077978518e-05 0.00020829772968896463 0 -4.8231576234097574e-05 0.00021124611288978089 0 -1.7110702077978518e-05 0.00020829772968896463 0 -2.6231664577055327e-05 0.00023162660588111535 0 -4.8231576234097574e-05 0.00021124611288978089 0 -3.208805225755656e-05 -1.1909613308061334e-05 0 -3.130023607641085e-05 -6.2992571061834225e-06 0 -3.4466382270566796e-05 -1.3897289165168822e-05 0 -4.5768147214505668e-05 -5.9506543158104156e-05 0 -4.4133085285032487e-05 -5.6578343663353146e-05 0 -4.5288069853592831e-05 -5.5963194816084244e-05 0 -5.2042544498552543e-05 -5.9630932127392101e-05 0 -5.2658163058078327e-05 -5.4916823883125725e-05 0 -5.680952463808679e-05 -5.6275169933495239e-05 0 -1.7346236650932089e-05 8.7706023032001894e-06 0 -2.127634410065292e-05 3.7156713662374356e-06 0 -2.3556401313767278e-05 5.6639203224193617e-06 0 -0.00017027275319960369 0.00032903943152350345 0 -0.00016998470136569949 0.00029814959434744739 0 -0.00014274002588683863 0.00032852038269396046 0 -3.2803654326266791e-05 -0.0001409416966502549 0 -4.6379951111232501e-05 -0.0001595141524221948 0 -3.5490175627933414e-05 -0.00015527652695512806 0 -4.3555986470758709e-05 -1.8851604327550289e-05 0 -4.2903950480556876e-05 -1.8796881765873639e-05 0 -3.4698014701605634e-05 -1.3960424722559806e-05 0 -6.2639937297110404e-05 2.1176215247646501e-05 0 -4.9352889658997355e-05 1.4237897046696061e-05 0 -6.0808501936123834e-05 2.1346642925814643e-05 0 -3.208805225755656e-05 -1.1909613308061334e-05 0 -3.6857466862173855e-05 -2.1446629905896423e-05 0 -3.2494928488951852e-05 -2.2262171957435061e-05 0 -3.0287261346430936e-05 -2.7422056478874829e-05 0 -3.5860493588830167e-05 -4.5540011330417284e-05 0 -2.533357598761308e-05 -4.7603531385636256e-05 0 -3.595944615515738e-05 -2.8834742319336231e-05 0 -3.6857466862173855e-05 -2.1446629905896423e-05 0 -3.9346285062103241e-05 -2.9593550902772137e-05 0 -4.0773791187373813e-05 -2.6900219865280455e-05 0 -3.9346285062103241e-05 -2.9593550902772137e-05 0 -3.6857466862173855e-05 -2.1446629905896423e-05 0 -6.9780841162976715e-05 -0.0001885483708605342 0 -5.9414146912241565e-05 -0.0001873141864927373 0 -5.9887180265436812e-05 -0.00017689931324758803 0 -8.5197217463873953e-05 0.00038604973107947665 0 -0.00011250638436450012 0.0003870878742228259 0 -0.00010985080854159383 0.00036104399237270866 0 -5.9520312750659144e-05 0.00038354474520014707 0 -8.5197217463873953e-05 0.00038604973107947665 0 -6.0861001924484686e-05 0.00035893486163162747 0 -8.1300628959735555e-05 -0.00018904439670675463 0 -6.9780841162976715e-05 -0.0001885483708605342 0 -8.0120276521561751e-05 -0.00017769423136950602 0 -3.4053838466964012e-05 4.2216382088733188e-05 0 -5.2948725152361459e-05 6.6170391848284924e-05 0 -5.2412011965905601e-05 4.6011845663766759e-05 0 -4.6153964336410831e-05 -3.2087213725783531e-05 0 -4.9721370108136305e-05 -3.718770522262753e-05 0 -4.728120050820708e-05 -3.7372598573653128e-05 0 -3.595944615515738e-05 -2.8834742319336231e-05 0 -3.9346285062103241e-05 -2.9593550902772137e-05 0 -3.7141479194656045e-05 -3.4525778394961869e-05 0 -4.1610895631848521e-05 -3.4696657042178824e-05 0 -3.7141479194656045e-05 -3.4525778394961869e-05 0 -3.9346285062103241e-05 -2.9593550902772137e-05 0 -4.3135686306137591e-05 -8.2340108599932826e-05 0 -4.003626332561232e-05 -6.4108251460779394e-05 0 -5.105397582655409e-05 -7.8919532075714062e-05 0 -0.00013471861951940876 0.00010478415578265497 0 -9.9865150282187973e-05 8.4530613651394854e-05 0 -0.00012069945579712353 0.00011590630035727093 0 -3.7031098163783334e-05 -2.1717511063401375e-05 0 -4.4649650667841274e-05 -2.9629779335729154e-05 0 -3.5670368763171782e-05 -2.4374757716283395e-05 0 -4.0977423397102132e-05 -3.2678534747560863e-05 0 -3.5670368763171782e-05 -2.4374757716283395e-05 0 -4.4649650667841274e-05 -2.9629779335729154e-05 0 -5.4998636706153388e-05 -5.2679733633549352e-05 0 -5.0841460524445154e-05 -5.1379970065553829e-05 0 -5.343956705632563e-05 -4.9768070216134592e-05 0 -0.00011110879305223622 0.00016622780329615046 0 -0.00013445282145692447 0.00018444999371018466 0 -0.00012278247065789776 0.00014456217848047908 0 -4.2123157343841098e-05 -1.9854389957271975e-05 0 -5.1210935357599452e-05 -2.6465144464456905e-05 0 -4.4058502698136207e-05 -2.422906986433432e-05 0 -5.3038521713525608e-05 -3.1564702153705578e-05 0 -4.4058502698136207e-05 -2.422906986433432e-05 0 -5.1210935357599452e-05 -2.6465144464456905e-05 0 -7.5219732987179863e-05 4.6054507590681411e-05 0 -7.4007423782761878e-05 3.5683648544815498e-05 0 -6.0200257259204505e-05 3.2234096146594555e-05 0 -5.9128977711652138e-05 2.4429875195586307e-05 0 -6.0200257259204505e-05 3.2234096146594555e-05 0 -7.4007423782761878e-05 3.5683648544815498e-05 0 -5.1844156440455351e-05 -4.2203778484415138e-05 0 -4.8567726791464242e-05 -4.2169494512024749e-05 0 -4.728120050820708e-05 -3.7372598573653128e-05 0 -8.3760931762903173e-05 -5.9348143881756785e-05 0 -7.8082324192769542e-05 -6.4077907604319584e-05 0 -6.7268052391425298e-05 -5.0167067603706076e-05 0 -3.4741581210327226e-05 0.00015716795081286613 0 -5.2137811490275563e-05 0.00012686135580673217 0 -2.8190687199275155e-05 0.00012074927868066767 0 -3.0445549637744024e-05 -6.4635514474337147e-06 0 -3.2077929277863831e-05 -1.0802152452381981e-05 0 -3.5965028872896484e-05 -1.3698071563578939e-05 0 -1.1735610403025145e-05 1.5352811886354878e-06 0 -1.0859207705875545e-05 4.0342682255220415e-06 0 -9.3125488311631504e-06 2.3523479278515512e-06 0 -0.0001238975112515921 0.00026289716450187057 0 -0.00010251088441317339 0.00027219390749528384 0 -0.00013108403957170283 0.00029886641473785003 0 -4.87002983791307e-05 -0.00012902926963284959 0 -5.8243256710291938e-05 -0.00013556373015713948 0 -4.8794608862235627e-05 -0.00014620425891258054 0 -3.208805225755656e-05 -1.1909613308061334e-05 0 -3.4466382270566789e-05 -1.3897289165168822e-05 0 -3.6857466862173855e-05 -2.1446629905896423e-05 0 -5.2658163058078327e-05 -5.4916823883125725e-05 0 -5.0841460524445154e-05 -5.1379970065553829e-05 0 -5.4998636706153388e-05 -5.2679733633549352e-05 0 -4.1610895631848521e-05 -3.4696657042178824e-05 0 -4.4749799650833059e-05 -3.766715503174725e-05 0 -4.2132906563236558e-05 -4.114364383408315e-05 0 -2.840548283294774e-09 -4.8266425245631549e-10 0 -2.2814550813938145e-06 -6.9512683268939128e-07 0 -3.0768138768884874e-06 -1.0076122181615236e-06 0 -2.9008936861690884e-09 2.052360123446705e-10 0 -3.1405953755621697e-06 1.6046648521760926e-07 0 -2.5521658644709365e-06 2.6628253144816899e-07 0 -4.003626332561232e-05 -6.4108251460779394e-05 0 -4.9624802171577377e-05 -6.4639941839429908e-05 0 -5.105397582655409e-05 -7.8919532075714062e-05 0 -2.1542079376979603e-05 3.7287393792717881e-06 0 -2.4755304518476881e-05 6.4797945776726427e-06 0 -2.8730907233551052e-05 6.1928724735555994e-06 0 -4.3921181033742923e-05 2.6907969346318507e-05 0 -5.2412011965905594e-05 4.6011845663766759e-05 0 -6.2557296536625392e-05 4.3641066227111297e-05 0 -3.7673738562221163e-06 -5.6662866818178515e-07 0 -2.0721991555517084e-06 -3.9900978640720695e-07 0 -3.9606366269644668e-06 -1.6769369846304005e-07 0 -2.9071549285500317e-06 -5.008800803718834e-08 0 -3.9606366269644668e-06 -1.6769369846304005e-07 0 -2.0721991555517084e-06 -3.9900978640720695e-07 0 -3.3476194404408495e-06 3.5893749075472008e-07 0 -2.4255710300850437e-06 3.4163319122953513e-07 0 -5.3065423881294596e-06 1.8807663198930818e-07 0 -4.5644080411602558e-06 2.0140075293842835e-07 0 -5.3065423881294596e-06 1.8807663198930818e-07 0 -2.4255710300850437e-06 3.4163319122953519e-07 0 -3.765213505410837e-05 1.5644546711663267e-05 0 -3.2115762131576673e-05 1.7478016411517745e-05 0 -4.3921181033742923e-05 2.6907969346318507e-05 0 -1.1735610403025145e-05 1.5352811886354878e-06 0 -1.4205037776593535e-05 2.9084749226106024e-06 0 -1.0859207705875545e-05 4.0342682255220415e-06 0 -9.6547770013033329e-06 2.7050896350976586e-06 0 -1.0142843717297374e-05 1.3591401989351381e-06 0 -7.2538937099620948e-06 5.4112842928326454e-07 0 -2.4755304518476881e-05 6.4797945776726427e-06 0 -1.7472259709866458e-05 3.260430425577512e-06 0 -2.0867075882598746e-05 7.1580342771810055e-06 0 -1.8638251901781884e-05 1.8067246611335231e-06 0 -1.5785230614021801e-05 5.8217637082023976e-06 0 -1.4205037776593535e-05 2.908474922610602e-06 0 -1.7793189001507411e-05 -5.8359136996539468e-06 0 -1.990638301671467e-05 -7.7867950684058178e-06 0 -1.5338783832756955e-05 -4.3435460442364549e-06 0 -1.8136284369005408e-05 -6.6264208521913232e-06 0 -1.5338783832756955e-05 -4.3435460442364549e-06 0 -1.990638301671467e-05 -7.7867950684058178e-06 0 -6.7158138695694825e-09 5.3663561026384519e-10 0 -4.8270660595671788e-09 -1.0403877164392101e-09 0 -5.6089894575218818e-06 1.6276317305212025e-07 0 -4.0267187973490226e-09 3.1498885025320847e-10 0 -5.3163861502259693e-09 -8.021027714508814e-10 0 -4.4470680854570195e-06 -1.1481711213682713e-06 0 8.4021254974852186e-06 0.00012216445757423297 0 -2.8190687199275155e-05 0.00012074927868066767 0 -2.1839327062762546e-05 8.9069964929868779e-05 0 -8.0466441990622096e-06 -3.81587162482793e-07 0 -1.1548541803029662e-05 -1.8558200634966342e-06 0 -8.6703365484388671e-06 -2.4976059990259586e-07 0 -3.6787199067694104e-05 -1.6726673903094731e-05 0 -3.0713969210489069e-05 -1.3491681526307621e-05 0 -3.3791967070724995e-05 -1.9409836698961637e-05 0 -4.8515451309868477e-05 -5.4093156606512255e-05 0 -5.0841460524445154e-05 -5.1379970065553829e-05 0 -5.2658163058078327e-05 -5.4916823883125725e-05 0 -3.6065857994146394e-05 -1.5042796903512986e-05 0 -3.4698014701605634e-05 -1.3960424722559806e-05 0 -2.9385880226446132e-05 -1.1396689761221678e-05 0 -5.0233844241774435e-05 1.5284647386528908e-05 0 -4.0500062170649666e-05 1.0286391290176331e-05 0 -4.9352889658997355e-05 1.4237897046696061e-05 0 -4.5542344902045528e-05 -4.1944608142164302e-05 0 -4.2132906563236558e-05 -4.114364383408315e-05 0 -4.4749799650833059e-05 -3.766715503174725e-05 0 -3.4698014701605634e-05 -1.3960424722559806e-05 0 -2.9607850134570684e-05 -1.1575342599595969e-05 0 -2.8193988083636767e-05 -1.054479646596088e-05 0 -3.6384870060877826e-05 9.8219843762321533e-06 0 -3.3281058064368365e-05 1.0438432832444852e-05 0 -4.5997949420527467e-05 1.4912305905451427e-05 0 -3.6728090930112715e-05 -1.5649806420850577e-05 0 -2.9607850134570684e-05 -1.1575342599595969e-05 0 -3.4698014701605634e-05 -1.3960424722559806e-05 0 -1.3354682969081627e-05 -3.0443978395263576e-06 0 -1.5583975207133556e-05 -4.1415583364612602e-06 0 -1.7588767415736472e-05 -5.2856420827234278e-06 0 -1.2806847475611291e-05 1.0132988575308742e-06 0 -1.7472259709866458e-05 3.260430425577512e-06 0 -1.7360755321126614e-05 1.4946413921911345e-06 0 -4.9382062423666512e-05 2.2078747038655817e-05 0 -3.765213505410837e-05 1.5644546711663267e-05 0 -4.3921181033742923e-05 2.6907969346318507e-05 0 -5.1844156440455351e-05 -4.2203778484415138e-05 0 -4.728120050820708e-05 -3.7372598573653128e-05 0 -4.9721370108136305e-05 -3.718770522262753e-05 0 -3.9687324163335675e-05 0.00026206813457340549 0 -3.4073699995915043e-05 0.00029561937478772251 0 -5.9844034419092906e-05 0.00029371472403456851 0 -8.4840650862630482e-05 -0.00013383445176682327 0 -8.9972708600300559e-05 -0.00015020907406026522 0 -7.7901689430138357e-05 -0.00014761003567303642 0 -3.7673738562221163e-06 -5.6662866818178515e-07 0 -2.2814550813938145e-06 -6.9512683268939128e-07 0 -2.0721991555517084e-06 -3.9900978640720695e-07 0 -4.5644080411602558e-06 2.0140075293842835e-07 0 -2.4255710300850432e-06 3.4163319122953519e-07 0 -2.5521658644709365e-06 2.6628253144816899e-07 0 -3.4848764388691166e-09 -6.7483367109337731e-10 0 -3.0768138768884874e-06 -1.0076122181615236e-06 0 -3.3931637522862279e-06 -9.9654291932000423e-07 0 -3.3157101370200464e-09 1.9659142185774936e-10 0 -3.1841270785160225e-06 -1.662334707767851e-08 0 -3.1405953755621697e-06 1.6046648521760926e-07 0 -3.6787199067694104e-05 -1.6726673903094731e-05 0 -4.1292234848564339e-05 -2.1297214374648725e-05 0 -4.0452122346834559e-05 -1.9496606639265051e-05 0 -4.3717480594764257e-05 -2.3959747060028814e-05 0 -4.0452122346834559e-05 -1.9496606639265051e-05 0 -4.1292234848564339e-05 -2.1297214374648725e-05 0 -7.4776402852257579e-05 0.00013583044573614849 0 -6.7619890677561616e-05 9.9389151133060392e-05 0 -5.2137811490275563e-05 0.00012686135580673217 0 -4.3636762095548215e-05 8.7993071921029715e-05 0 -5.2137811490275563e-05 0.00012686135580673217 0 -6.7619890677561616e-05 9.9389151133060392e-05 0 -1.8265031917487237e-05 2.0905307955006765e-05 0 -1.3648272391736119e-05 1.3763072697704654e-05 0 -1.2748545580243535e-05 2.2109129965786205e-05 0 -3.6787199067694104e-05 -1.6726673903094731e-05 0 -3.2077929277863831e-05 -1.0802152452381981e-05 0 -3.0713969210489069e-05 -1.3491681526307621e-05 0 -5.8082738861881246e-06 6.2951315908277338e-07 0 -4.1958585151089897e-06 2.1792424950816057e-07 0 -5.377256091605406e-06 6.3411199214381368e-07 0 -4.6153964336410831e-05 -3.2087213725783531e-05 0 -4.728120050820708e-05 -3.7372598573653128e-05 0 -4.3413531912533882e-05 -3.2237107398284889e-05 0 -0.00010123166957489872 0.00021349640320827507 0 -0.00011373370300283416 0.0001898969829130484 0 -8.9903818886440424e-05 0.00017110817076439509 0 -5.7040658046951371e-05 -4.898363719737119e-05 0 -5.6075372231295179e-05 -4.5057705348049349e-05 0 -5.9212101365952106e-05 -5.0140731006800649e-05 0 -4.3660805036986284e-05 -4.6765953361229185e-05 0 -4.5760395961541762e-05 -4.5540536239722122e-05 0 -4.6483755427877894e-05 -5.0518550808816811e-05 0 -1.1714224926057546e-05 -2.2090944441964074e-06 0 -7.8510991795469264e-06 -5.4676969145268422e-07 0 -1.0899698236806114e-05 -1.8939724615932108e-06 0 -7.1683697841749553e-05 6.9406053934948256e-05 0 -5.2412011965905601e-05 4.6011845663766759e-05 0 -5.2948725152361459e-05 6.6170391848284924e-05 0 -1.4869942222977484e-05 -7.1693976658793259e-06 0 -2.1654840321686258e-05 -9.4596217657831812e-06 0 -1.313035759284579e-05 -5.3700595493379739e-06 0 -2.8385403193178639e-05 8.6188240546431646e-06 0 -1.8832114490553487e-05 6.6516273358601735e-06 0 -1.7025812307787258e-05 4.1043619411151363e-06 0 -3.595944615515738e-05 -2.8834742319336231e-05 0 -3.2494928488951852e-05 -2.2262171957435061e-05 0 -3.6857466862173855e-05 -2.1446629905896423e-05 0 -6.6535778015288513e-06 -7.9084332204143975e-07 0 -1.1073267158245813e-05 -2.1568607454244438e-06 0 -6.6598073730525793e-06 -5.2083933750855924e-07 0 -7.3968407651949188e-06 -9.6375427954717528e-07 0 -6.4141373482072703e-06 -1.1171928295440175e-06 0 -1.2033374134983561e-05 -1.5283502212223702e-07 0 -0.00012166625798358393 7.9268487522436443e-05 0 -9.5234840328902088e-05 6.2363972075098813e-05 0 -9.9865150282187973e-05 8.4530613651394854e-05 0 -7.6417640193989438e-05 -4.7709333189066357e-05 0 -6.7268052391425298e-05 -5.0167067603706076e-05 0 -6.3353119828260814e-05 -3.9320181353303614e-05 0 -3.4053838466964012e-05 4.2216382088733188e-05 0 -1.8747223574476022e-05 3.0977712446969609e-05 0 -2.7063622743591237e-05 5.5576372588689696e-05 0 -7.1226949168964939e-06 3.3498346074890645e-05 0 -2.7063622743591237e-05 5.5576372588689696e-05 0 -1.8747223574476022e-05 3.0977712446969609e-05 0 -4.42929580732173e-05 -5.1239195201851491e-05 0 -5.3862782071757934e-05 -5.6185899235910769e-05 0 -4.9624802171577377e-05 -6.4639941839429908e-05 0 -5.8335882678421135e-05 -7.4783135892412508e-05 0 -4.9624802171577377e-05 -6.4639941839429908e-05 0 -5.3862782071757934e-05 -5.6185899235910769e-05 0 -3.208805225755656e-05 -1.1909613308061334e-05 0 -2.6856962794004195e-05 -3.0801939140754189e-06 0 -2.719678057315952e-05 1.3859777192014743e-06 0 -4.8515451309868477e-05 -5.4093156606512255e-05 0 -5.2658163058078334e-05 -5.4916823883125731e-05 0 -4.9693633896653464e-05 -5.7124127370124827e-05 0 -5.8082738861881246e-06 6.2951315908277338e-07 0 -7.2538937099620948e-06 5.4112842928326454e-07 0 -5.2127556976600962e-06 -1.1606381113894666e-07 0 -4.4649650667841274e-05 -2.9629779335729154e-05 0 -5.5808432158403638e-05 -3.8675357352811213e-05 0 -4.8629441374020725e-05 -3.753499233552742e-05 0 -4.5768147214505668e-05 -5.9506543158104156e-05 0 -4.5288069853592831e-05 -5.5963194816084244e-05 0 -4.7326079391759023e-05 -5.7095325046838866e-05 0 -0.00010093662603697492 0.00011527677583319649 0 -0.00012069945579712353 0.00011590630035727093 0 -9.9865150282187973e-05 8.4530613651394854e-05 0 -0.00013108403957170283 0.00029886641473785003 0 -0.00010251088441317339 0.00027219390749528384 0 -0.00010222993227947509 0.00030119342246949391 0 -4.8794608862235627e-05 -0.00014620425891258054 0 -5.8243256710291938e-05 -0.00013556373015713948 0 -6.041757297326172e-05 -0.00014919266251672817 0 -1.4789505795222537e-05 -3.3014623386012905e-06 0 -1.4295381560147964e-05 -1.7430655138646763e-06 0 -1.1645499331989513e-05 -1.2954867830467625e-06 0 -4.3717480594764257e-05 -2.3959747060028814e-05 0 -4.1292234848564339e-05 -2.1297214374648725e-05 0 -4.6276958985155238e-05 -2.6924997059438845e-05 0 -7.361697032627446e-06 1.2339476323479469e-06 0 -9.3125488311631504e-06 2.3523479278515512e-06 0 -8.0226401050392881e-06 2.3611680536429615e-06 0 -9.5048941287765091e-06 3.9412786556165409e-06 0 -8.0226401050392881e-06 2.3611680536429615e-06 0 -9.3125488311631504e-06 2.3523479278515512e-06 0 -2.4755304518476881e-05 6.4797945776726427e-06 0 -3.3281058064368365e-05 1.0438432832444852e-05 0 -2.8730907233551052e-05 6.1928724735555994e-06 0 -5.8335882678421135e-05 -7.4783135892412508e-05 0 -6.7457207324327873e-05 -8.5008170662208442e-05 0 -6.262216700656969e-05 -9.4249674481313898e-05 0 -3.0625832620971287e-05 6.1725060002747211e-06 0 -2.4672777138133105e-05 3.7536864115661692e-06 0 -3.686700223406011e-05 8.6360496976180166e-06 0 -4.8231576234097574e-05 0.00021124611288978089 0 -7.5916726886214925e-05 0.00024272446073497016 0 -8.0092846025089264e-05 0.00021525314726112123 0 -4.8231576234097574e-05 0.00021124611288978089 0 -8.0092846025089264e-05 0.00021525314726112123 0 -7.3096552985673263e-05 0.00018603817947323995 0 -0.00010123166957489872 0.00021349640320827507 0 -7.3096552985673263e-05 0.00018603817947323998 0 -8.0092846025089264e-05 0.00021525314726112123 0 -7.4310061548971132e-05 -0.00010867575288660119 0 -6.7037837002039891e-05 -0.00012310020679287924 0 -6.0902746528758415e-05 -0.00010786832030120822 0 -7.4310061548971132e-05 -0.00010867575288660119 0 -6.0902746528758415e-05 -0.00010786832030120822 0 -6.262216700656969e-05 -9.4249674481313898e-05 0 -1.3648272391736119e-05 1.3763072697704654e-05 0 -1.3137554013907554e-05 1.539426605175251e-05 0 -1.2748545580243535e-05 2.2109129965786205e-05 0 -2.4261704738536148e-09 -3.7966055753291792e-10 0 -2.0185650814437209e-09 -3.5860689466007866e-11 0 -2.0721991555517084e-06 -3.9900978640720695e-07 0 -2.2903203096142277e-09 1.6683474915081183e-10 0 -2.5997052740118877e-09 2.2993205005648145e-10 0 -2.4255710300850437e-06 3.4163319122953519e-07 0 -1.1548541803029662e-05 -1.8558200634966342e-06 0 -1.1645499331989515e-05 -1.2954867830467627e-06 0 -8.6703365484388671e-06 -2.4976059990259586e-07 0 -3.0287261346430936e-05 -2.7422056478874829e-05 0 -2.9902706903887256e-05 -2.4036177425730078e-05 0 -3.4278294221845258e-05 -3.2706568553640401e-05 0 -2.4672777138133105e-05 3.7536864115661696e-06 0 -2.8730907233551052e-05 6.1928724735555994e-06 0 -3.686700223406011e-05 8.6360496976180166e-06 0 -2.0012945679901034e-09 1.277462545960848e-10 0 -2.6524030427024029e-06 2.6035201079802967e-07 0 -1.6993311116884327e-06 3.8628464416260554e-08 0 -2.8385403193178639e-05 8.6188240546431646e-06 0 -2.3582669593880467e-05 4.7381848902475782e-06 0 -3.2568253322508956e-05 7.9595215549882975e-06 0 -2.1654840321686258e-05 -9.4596217657831812e-06 0 -2.4235243183530954e-05 -9.4086473991267565e-06 0 -1.796878743575833e-05 -6.5957490557601231e-06 0 -6.914704565938569e-05 -6.3170759946730998e-05 0 -6.7268052391425298e-05 -5.0167067603706076e-05 0 -7.8082324192769542e-05 -6.4077907604319584e-05 0 -4.599524368185214e-06 3.7071939382957882e-07 0 -3.3476194404408495e-06 3.5893749075472008e-07 0 -6.0681307762173108e-06 2.1136189551696567e-07 0 -5.1844156440455351e-05 -4.2203778484415138e-05 0 -5.6075372231295179e-05 -4.5057705348049349e-05 0 -5.3954503036428009e-05 -4.6071414210493595e-05 0 -1.8638251901781884e-05 1.8067246611335231e-06 0 -1.4205037776593535e-05 2.908474922610602e-06 0 -1.7039399606834972e-05 -2.7716261115049288e-08 0 -3.4741581210327226e-05 0.00015716795081286613 0 -6.2245155959009593e-05 0.00016006313618885322 0 -5.2137811490275563e-05 0.00012686135580673217 0 -5.8082738861881246e-06 6.2951315908277338e-07 0 -3.9606366269644668e-06 -1.6769369846304005e-07 0 -4.1958585151089897e-06 2.1792424950816057e-07 0 -0.00011404800609746952 0.00033154730354054894 0 -0.00010222993227947509 0.00030119342246949391 0 -8.1912282232541697e-05 0.00031648555249909821 0 -5.7360547387937732e-05 -0.00016334229471700178 0 -6.041757297326172e-05 -0.00014919266251672817 0 -6.9515695539199303e-05 -0.00015740177554514489 0 -3.3476194404408495e-06 3.5893749075472008e-07 0 -5.3065423881294596e-06 1.8807663198930818e-07 0 -6.0681307762173108e-06 2.1136189551696567e-07 0 -1.8638251901781884e-05 1.8067246611335231e-06 0 -2.1191798887912374e-05 -2.5745210198130735e-06 0 -2.4559978085215216e-05 -1.8896310306869499e-06 0 -5.518116677038064e-05 0.00032861014071896579 0 -6.0861001924484686e-05 0.00035893486163162747 0 -8.4688916526567978e-05 0.00035062399925420861 0 -0.00011404800609746952 0.00033154730354054894 0 -8.4688916526567978e-05 0.00035062399925420856 0 -0.00010985080854159383 0.00036104399237270866 0 -8.1825415915305299e-05 -0.00016407299638606182 0 -8.0120276521561751e-05 -0.00017769423136950602 0 -6.9541885905816009e-05 -0.00017315686263741728 0 -5.7360547387937732e-05 -0.00016334229471700178 0 -6.9541885905816009e-05 -0.00017315686263741728 0 -5.9887180265436812e-05 -0.00017689931324758803 0 -4.3921181033742923e-05 2.6907969346318507e-05 0 -6.2557296536625392e-05 4.3641066227111297e-05 0 -6.0200257259204505e-05 3.2234096146594555e-05 0 -5.4664403554502814e-05 -4.43301315347726e-05 0 -6.7268052391425298e-05 -5.0167067603706076e-05 0 -6.1016107554703167e-05 -5.4923060481717639e-05 0 -6.914704565938569e-05 -6.3170759946730998e-05 0 -6.1016107554703167e-05 -5.4923060481717639e-05 0 -6.7268052391425298e-05 -5.0167067603706076e-05 0 -0.00010093662603697492 0.00011527677583319649 0 -9.9865150282187973e-05 8.4530613651394854e-05 0 -8.3916201081951072e-05 9.6185035283819054e-05 0 -7.1683697841749553e-05 6.9406053934948256e-05 0 -8.3916201081951072e-05 9.6185035283819054e-05 0 -9.9865150282187973e-05 8.4530613651394854e-05 0 -4.5644080411602558e-06 2.0140075293842835e-07 0 -5.5263058635593913e-06 -6.7800761302013838e-08 0 -7.8510991795469264e-06 -5.4676969145268422e-07 0 5.4913826402431478e-06 8.5515465079915101e-05 0 8.4021254974852186e-06 0.00012216445757423297 0 -2.1839327062762546e-05 8.9069964929868779e-05 0 -7.3968407651949188e-06 -9.6375427954717528e-07 0 -1.1325483161153453e-05 -2.456192041315849e-07 0 -7.339450858678985e-06 -4.559385617902826e-07 0 -6.6535778015288513e-06 -7.9084332204143975e-07 0 -6.0474279352823763e-06 -1.0862308231680064e-06 0 -9.5803410320504418e-06 -1.9356380500692592e-06 0 -3.6787199067694104e-05 -1.6726673903094731e-05 0 -3.5965028872896484e-05 -1.3698071563578939e-05 0 -3.2077929277863831e-05 -1.0802152452381981e-05 0 -1.1073267158245813e-05 -2.1568607454244438e-06 0 -1.0340487011221867e-05 -1.7374221416630752e-06 0 -6.6598073730525793e-06 -5.2083933750855924e-07 0 -1.2033374134983561e-05 -1.5283502212223702e-07 0 -6.4141373482072712e-06 -1.1171928295440175e-06 0 -1.0068683571994493e-05 -1.1070330996880641e-07 0 -3.6384870060877826e-05 9.8219843762321533e-06 0 -4.5997949420527467e-05 1.4912305905451427e-05 0 -3.686700223406011e-05 8.6360496976180166e-06 0 -4.9352889658997355e-05 1.4237897046696061e-05 0 -3.686700223406011e-05 8.6360496976180166e-06 0 -4.5997949420527467e-05 1.4912305905451427e-05 0 -5.518116677038064e-05 0.00032861014071896579 0 -5.9844034419092906e-05 0.00029371472403456851 0 -3.4073699995915043e-05 0.00029561937478772251 0 -8.1825415915305299e-05 -0.00016407299638606182 0 -7.7901689430138357e-05 -0.00014761003567303642 0 -8.9972708600300559e-05 -0.00015020907406026522 0 -4.5768147214505668e-05 -5.9506543158104156e-05 0 -4.4807851386351501e-05 -5.7708539920289478e-05 0 -4.413308528503248e-05 -5.6578343663353146e-05 0 -5.6962144058111503e-05 -5.9930784729090591e-05 0 -5.2042544498552543e-05 -5.9630932127392101e-05 0 -5.680952463808679e-05 -5.6275169933495239e-05 0 -2.1555516426487077e-05 -8.2872212951591608e-06 0 -1.7793189001507411e-05 -5.8359136996539468e-06 0 -1.7588767415736472e-05 -5.2856420827234278e-06 0 -6.190803524842899e-05 -5.4591829723141105e-05 0 -6.0173387034711735e-05 -5.309960247499993e-05 0 -5.9212101365952106e-05 -5.0140731006800649e-05 0 -3.4026129881928416e-05 -3.7226768659516847e-05 0 -3.5107616498711145e-05 -3.9796517437610713e-05 0 -3.8895327581241029e-05 -4.5890246962611442e-05 0 -4.3503310038304458e-05 -5.0316636513477645e-05 0 -4.1303990922660354e-05 -4.9026985068307741e-05 0 -4.0335602130950771e-05 -4.4827198568004355e-05 0 -5.3038521713525608e-05 -3.1564702153705578e-05 0 -5.5808432158403638e-05 -3.8675357352811213e-05 0 -4.4649650667841274e-05 -2.9629779335729154e-05 0 -5.2042544498552543e-05 -5.9630932127392101e-05 0 -4.9693633896653464e-05 -5.7124127370124827e-05 0 -5.2658163058078327e-05 -5.4916823883125725e-05 0 -5.9128977711652138e-05 2.4429875195586307e-05 0 -4.5997949420527467e-05 1.4912305905451427e-05 0 -4.9382062423666512e-05 2.2078747038655817e-05 0 -1.4295381560147964e-05 -1.7430655138646765e-06 0 -1.1575087216275777e-05 -1.2253906397285517e-07 0 -1.1645499331989513e-05 -1.2954867830467625e-06 0 -5.4664403554502814e-05 -4.43301315347726e-05 0 -5.3862782071757934e-05 -5.6185899235910769e-05 0 -4.7362698303221004e-05 -4.3447300634722038e-05 0 -4.42929580732173e-05 -5.1239195201851491e-05 0 -4.7362698303221004e-05 -4.3447300634722038e-05 0 -5.3862782071757934e-05 -5.6185899235910769e-05 0 -2.2682809746827778e-05 -8.3399471781855047e-06 0 -2.1555516426487077e-05 -8.2872212951591608e-06 0 -1.7588767415736472e-05 -5.2856420827234278e-06 0 -5.4664403554502814e-05 -4.43301315347726e-05 0 -4.8629441374020725e-05 -3.753499233552742e-05 0 -5.5808432158403638e-05 -3.8675357352811213e-05 0 -1.9413925570758964e-05 -6.1043282437470596e-06 0 -2.2682809746827778e-05 -8.3399471781855047e-06 0 -1.7588767415736472e-05 -5.2856420827234278e-06 0 -1.2806847475611291e-05 1.0132988575308742e-06 0 -1.2635964190925357e-05 2.8647004556222159e-06 0 -1.7472259709866458e-05 3.260430425577512e-06 0 -5.4664403554502814e-05 -4.43301315347726e-05 0 -5.5808432158403638e-05 -3.8675357352811213e-05 0 -6.7268052391425298e-05 -5.0167067603706076e-05 0 -7.1683697841749553e-05 6.9406053934948256e-05 0 -9.9865150282187973e-05 8.4530613651394854e-05 0 -8.0538482681499079e-05 6.0310000582765834e-05 0 -4.8270660595671788e-09 -1.0403877164392101e-09 0 -3.5961562040724238e-06 -7.3437421660764743e-07 0 -7.339450858678985e-06 -4.559385617902826e-07 0 -4.0267187973490226e-09 3.1498885025320847e-10 0 -6.0474279352823763e-06 -1.0862308231680064e-06 0 -3.1291111902566196e-06 -2.4913896529229135e-07 0 -1.9413925570758964e-05 -6.1043282437470596e-06 0 -1.7588767415736472e-05 -5.2856420827234278e-06 0 -1.5583975207133556e-05 -4.1415583364612602e-06 0 -2.1542079376979603e-05 3.7287393792717881e-06 0 -1.7360755321126614e-05 1.4946413921911345e-06 0 -1.7472259709866458e-05 3.260430425577512e-06 0 -7.4481855491443404e-06 -6.4752278098350371e-07 0 -5.3096401798544285e-06 -8.3193794175839711e-07 0 -8.4060333647514952e-06 9.9816715758879315e-08 0 -3.4278294221845258e-05 -3.2706568553640401e-05 0 -4.0867457493464777e-05 -3.86922738136254e-05 0 -3.5860493588830167e-05 -4.5540011330417284e-05 0 -5.8082738861881246e-06 6.2951315908277338e-07 0 -5.377256091605406e-06 6.3411199214381378e-07 0 -6.5649494700916648e-06 1.2173932034366779e-06 0 -0.00011404800609746952 0.00033154730354054894 0 -0.00013108403957170283 0.00029886641473785003 0 -0.00010222993227947509 0.00030119342246949391 0 -5.7360547387937732e-05 -0.00016334229471700178 0 -4.8794608862235627e-05 -0.00014620425891258054 0 -6.041757297326172e-05 -0.00014919266251672817 0 -1.3354682969081627e-05 -3.0443978395263576e-06 0 -1.1073267158245813e-05 -2.1568607454244438e-06 0 -1.5583975207133556e-05 -4.1415583364612602e-06 0 -1.2806847475611291e-05 1.0132988575308742e-06 0 -1.7360755321126614e-05 1.4946413921911345e-06 0 -1.2033374134983561e-05 -1.5283502212223702e-07 0 -4.5340309272611913e-06 4.2713017420782719e-07 0 -6.4695916756328245e-06 3.6179117771895907e-07 0 -6.266761459489906e-06 6.6522911492034021e-07 0 -4.0867457493464777e-05 -3.86922738136254e-05 0 -4.42929580732173e-05 -5.1239195201851491e-05 0 -3.5860493588830167e-05 -4.5540011330417284e-05 0 -0.0001664252452241019 0.00023283828842064571 0 -0.00016209259302565581 0.00019939419223442622 0 -0.0001330027151733059 0.00021475729888407631 0 -2.5859941610862179e-05 -9.3801432904737372e-05 0 -4.0102813488171007e-05 -0.00010459331622984162 0 -2.7727027520950522e-05 -0.00010950503219394317 0 -7.4310061548971132e-05 -0.00010867575288660119 0 -6.2622167006569677e-05 -9.4249674481313898e-05 0 -7.2581952771921866e-05 -9.5093736983815059e-05 0 -2.6263342427636216e-05 -7.3461581560648924e-06 0 -3.0713969210489063e-05 -1.349168152630762e-05 0 -3.2077929277863831e-05 -1.0802152452381981e-05 0 -3.0625832620971287e-05 6.1725060002747211e-06 0 -2.3582669593880463e-05 4.7381848902475774e-06 0 -2.2664166804472787e-05 3.3582244295769199e-06 0 -2.3204527632115523e-05 -8.1929106166592503e-06 0 -1.7727820639070066e-05 -5.7312360644304831e-06 0 -1.796878743575833e-05 -6.5957490557601231e-06 0 -1.3773456122621262e-05 8.9616957989020066e-06 0 -1.2680728897762872e-05 5.1796242372293927e-06 0 -1.055860344438389e-05 5.6157981911765992e-06 0 -4.5340309272611913e-06 4.2713017420782719e-07 0 -4.599524368185214e-06 3.7071939382957882e-07 0 -6.4695916756328245e-06 3.6179117771895907e-07 0 -4.3717480594764257e-05 -2.3959747060028814e-05 0 -4.802434292796751e-05 -3.0252422707936014e-05 0 -4.4439167132048434e-05 -2.6537863859769224e-05 0 -3.0625832620971287e-05 6.1725060002747211e-06 0 -3.2568253322508956e-05 7.9595215549882975e-06 0 -2.3582669593880467e-05 4.7381848902475782e-06 0 -2.3204527632115523e-05 -8.1929106166592503e-06 0 -1.796878743575833e-05 -6.5957490557601223e-06 0 -2.4235243183530958e-05 -9.4086473991267582e-06 0 -1.8638251901781884e-05 1.8067246611335231e-06 0 -1.7039399606834972e-05 -2.7716261115049288e-08 0 -2.1191798887912374e-05 -2.5745210198130735e-06 0 -6.7565896926899554e-05 -0.00014089060064773943 0 -6.7037837002039877e-05 -0.00012310020679287922 0 -7.4677853174010407e-05 -0.00013299720786194092 0 -8.1745676057103824e-05 0.00028182149131920529 0 -7.5916726886214925e-05 0.00024272446073497016 0 -6.2205080463836919e-05 0.00026303766148838819 0 -5.3038521713525608e-05 -3.1564702153705578e-05 0 -4.4649650667841274e-05 -2.9629779335729154e-05 0 -4.4058502698136207e-05 -2.422906986433432e-05 0 -3.7031098163783334e-05 -2.1717511063401375e-05 0 -4.4058502698136207e-05 -2.422906986433432e-05 0 -4.4649650667841274e-05 -2.9629779335729154e-05 0 -2.2906350346335195e-05 -1.1767510910474047e-05 0 -2.5892958870146856e-05 -1.5014698177625867e-05 0 -2.6549567782562986e-05 -1.7310588631727862e-05 0 -3.0015080571398887e-05 -2.089386171185729e-05 0 -2.6549567782562986e-05 -1.7310588631727862e-05 0 -2.5892958870146856e-05 -1.5014698177625867e-05 0 -3.0768138768884874e-06 -1.0076122181615236e-06 0 -5.3096401798544285e-06 -8.3193794175839711e-07 0 -6.4141373482072712e-06 -1.1171928295440175e-06 0 -7.4481855491443404e-06 -6.4752278098350371e-07 0 -6.4141373482072712e-06 -1.1171928295440175e-06 0 -5.3096401798544285e-06 -8.3193794175839711e-07 0 -8.1872802234878396e-06 -8.7629282243366624e-07 0 -5.5263058635593913e-06 -6.7800761302013838e-08 0 -6.6598073730525793e-06 -5.2083933750855924e-07 0 -3.1405953755621697e-06 1.6046648521760926e-07 0 -6.6598073730525793e-06 -5.2083933750855924e-07 0 -5.5263058635593913e-06 -6.7800761302013838e-08 0 -5.1844156440455351e-05 -4.2203778484415138e-05 0 -5.1346105682233119e-05 -4.6069064913895327e-05 0 -4.8567726791464242e-05 -4.2169494512024749e-05 0 -2.6263342427636216e-05 -7.3461581560648924e-06 0 -2.4559978085215216e-05 -1.8896310306869499e-06 0 -2.1191798887912374e-05 -2.5745210198130735e-06 0 -9.5048941287765091e-06 3.9412786556165409e-06 0 -9.1406220762151576e-06 3.6480144289482956e-06 0 -8.0226401050392881e-06 2.3611680536429615e-06 0 -4.8231576234097574e-05 0.00021124611288978089 0 -5.0655786284001852e-05 0.00024251143139685676 0 -7.5916726886214925e-05 0.00024272446073497016 0 -7.4310061548971132e-05 -0.00010867575288660119 0 -7.7854996528715982e-05 -0.00012301106653985722 0 -6.7037837002039891e-05 -0.00012310020679287924 0 -4.8231576234097574e-05 0.00021124611288978089 0 -7.3096552985673263e-05 0.00018603817947323995 0 -4.8739959859677271e-05 0.00018034808166311354 0 -1.3773456122621262e-05 8.9616957989020066e-06 0 -1.7242733648293092e-05 8.3024644058827202e-06 0 -1.2680728897762872e-05 5.1796242372293927e-06 0 -1.3773456122621262e-05 8.9616957989020066e-06 0 -1.8259016060179919e-05 1.408580614349978e-05 0 -1.7242733648293092e-05 8.3024644058827202e-06 0 -7.4776402852257579e-05 0.00013583044573614849 0 -6.2245155959009593e-05 0.00016006313618885325 0 -8.9903818886440424e-05 0.00017110817076439509 0 -7.3096552985673263e-05 0.00018603817947323995 0 -8.9903818886440424e-05 0.00017110817076439509 0 -6.2245155959009593e-05 0.00016006313618885325 0 -1.1563115077291074e-05 1.289975756752718e-06 0 -7.3394508586789859e-06 -4.5593856179028255e-07 0 -1.2986779410866948e-05 5.5608273840723165e-07 0 -9.0733628058880572e-06 -2.8425616058859207e-06 0 -1.0491955796735342e-05 -2.6584129807479516e-06 0 -6.0474279352823763e-06 -1.0862308231680064e-06 0 -4.42929580732173e-05 -5.1239195201851491e-05 0 -4.9624802171577377e-05 -6.4639941839429908e-05 0 -4.003626332561232e-05 -6.4108251460779394e-05 0 -6.190803524842899e-05 -5.4591829723141105e-05 0 -6.3218060443400614e-05 -5.8223486817169165e-05 0 -6.0173387034711735e-05 -5.309960247499993e-05 0 -3.4026129881928416e-05 -3.7226768659516847e-05 0 -3.8895327581241029e-05 -4.5890246962611442e-05 0 -3.6970154775728455e-05 -4.0949152734506117e-05 0 -1.7737947429533335e-05 -2.713136781936114e-06 0 -2.1191798887912374e-05 -2.5745210198130735e-06 0 -1.7039399606834972e-05 -2.7716261115049288e-08 0 -9.5048941287765091e-06 3.9412786556165409e-06 0 -1.1215920681290675e-05 6.8158244769981804e-06 0 -1.055860344438389e-05 5.6157981911765992e-06 0 -4.8515451309868477e-05 -5.4093156606512255e-05 0 -4.6483755427877894e-05 -5.0518550808816811e-05 0 -5.0841460524445154e-05 -5.1379970065553829e-05 0 -4.8378692970406958e-05 -4.8444657023572137e-05 0 -5.0841460524445154e-05 -5.1379970065553829e-05 0 -4.6483755427877894e-05 -5.0518550808816811e-05 0 -4.1610895631848521e-05 -3.4696657042178824e-05 0 -4.2132906563236558e-05 -4.114364383408315e-05 0 -3.7141479194656045e-05 -3.4525778394961869e-05 0 -0.00011404800609746952 0.00033154730354054894 0 -0.00014274002588683863 0.00032852038269396046 0 -0.00013108403957170283 0.00029886641473785003 0 -5.7360547387937732e-05 -0.00016334229471700178 0 -4.6379951111232501e-05 -0.0001595141524221948 0 -4.8794608862235627e-05 -0.00014620425891258054 0 -5.9034145480532119e-05 -5.4288858181725226e-05 0 -6.2132095367862337e-05 -5.8038763960615311e-05 0 -5.680952463808679e-05 -5.6275169933495239e-05 0 -4.2088231950550639e-05 -5.1891070289165223e-05 0 -4.413308528503248e-05 -5.6578343663353146e-05 0 -4.263357704931798e-05 -5.2002985580843623e-05 0 -5.518116677038064e-05 0.00032861014071896579 0 -8.1912282232541697e-05 0.00031648555249909821 0 -5.9844034419092906e-05 0.00029371472403456851 0 -8.1825415915305299e-05 -0.00016407299638606182 0 -6.9515695539199303e-05 -0.00015740177554514489 0 -7.7901689430138357e-05 -0.00014761003567303642 0 -4.5340309272611913e-06 4.2713017420782719e-07 0 -6.266761459489906e-06 6.6522911492034021e-07 0 -5.377256091605406e-06 6.3411199214381368e-07 0 -7.361697032627446e-06 1.2339476323479469e-06 0 -5.377256091605406e-06 6.3411199214381368e-07 0 -6.266761459489906e-06 6.6522911492034021e-07 0 -3.9687324163335675e-05 0.00026206813457340549 0 -5.9844034419092906e-05 0.00029371472403456851 0 -6.2205080463836919e-05 0.00026303766148838819 0 -8.4840650862630482e-05 -0.00013383445176682327 0 -7.7901689430138357e-05 -0.00014761003567303642 0 -7.4677853174010407e-05 -0.00013299720786194092 0 -7.3968407651949188e-06 -9.6375427954717528e-07 0 -7.339450858678985e-06 -4.5593856179028255e-07 0 -3.5961562040724238e-06 -7.3437421660764743e-07 0 -6.6535778015288513e-06 -7.9084332204143975e-07 0 -3.1291111902566196e-06 -2.4913896529229135e-07 0 -6.0474279352823763e-06 -1.0862308231680064e-06 0 -4.3636762095548215e-05 8.7993071921029715e-05 0 -2.8190687199275155e-05 0.00012074927868066767 0 -5.2137811490275563e-05 0.00012686135580673217 0 -1.1563115077291074e-05 1.289975756752718e-06 0 -5.6089894575218818e-06 1.6276317305212025e-07 0 -7.339450858678985e-06 -4.559385617902826e-07 0 -9.0733628058880572e-06 -2.8425616058859207e-06 0 -6.0474279352823763e-06 -1.0862308231680064e-06 0 -4.4470680854570195e-06 -1.1481711213682713e-06 0 -0.00016998470136569949 0.00029814959434744739 0 -0.00014650014372206817 0.00027521082330784818 0 -0.00013108403957170283 0.00029886641473785003 0 -3.2803654326266791e-05 -0.0001409416966502549 0 -4.0462173086634624e-05 -0.00013288792407622734 0 -4.8794608862235627e-05 -0.00014620425891258054 0 -3.4053838466964012e-05 4.2216382088733188e-05 0 -5.2412011965905601e-05 4.6011845663766759e-05 0 -3.6434956532596969e-05 3.1845102038756795e-05 0 -4.3921181033742923e-05 2.6907969346318507e-05 0 -3.6434956532596969e-05 3.1845102038756802e-05 0 -5.2412011965905601e-05 4.6011845663766759e-05 0 -5.8335882678421135e-05 -7.4783135892412508e-05 0 -5.3862782071757934e-05 -5.6185899235910769e-05 0 -6.2082339999007701e-05 -6.4264325838792654e-05 0 -3.208805225755656e-05 -1.1909613308061334e-05 0 -3.2494928488951852e-05 -2.2262171957435061e-05 0 -2.7828186399313538e-05 -1.577795138733209e-05 0 -7.4776402852257579e-05 0.00013583044573614849 0 -8.4958473946216903e-05 0.00011709122148004491 0 -6.7619890677561616e-05 9.9389151133060392e-05 0 -7.1683697841749553e-05 6.9406053934948256e-05 0 -6.7619890677561616e-05 9.9389151133060392e-05 0 -8.3916201081951072e-05 9.6185035283819054e-05 0 -5.4664403554502814e-05 -4.43301315347726e-05 0 -6.1016107554703167e-05 -5.4923060481717639e-05 0 -5.3862782071757934e-05 -5.6185899235910769e-05 0 -4.42929580732173e-05 -5.1239195201851491e-05 0 -4.003626332561232e-05 -6.4108251460779394e-05 0 -3.5860493588830167e-05 -4.5540011330417284e-05 0 -5.7040658046951371e-05 -4.898363719737119e-05 0 -5.9212101365952106e-05 -5.0140731006800649e-05 0 -6.0173387034711735e-05 -5.309960247499993e-05 0 -3.8635052745269542e-05 -4.4615470658543449e-05 0 -3.8895327581241029e-05 -4.5890246962611442e-05 0 -3.5107616498711145e-05 -3.9796517437610713e-05 0 -3.0445549637744024e-05 -6.4635514474337147e-06 0 -3.5965028872896484e-05 -1.3698071563578939e-05 0 -3.3414341923082942e-05 -9.8143323817266762e-06 0 -3.6787199067694104e-05 -1.6726673903094731e-05 0 -4.0452122346834559e-05 -1.9496606639265051e-05 0 -3.5965028872896484e-05 -1.3698071563578939e-05 0 -1.7346236650932089e-05 8.7706023032001894e-06 0 -1.5785230614021801e-05 5.8217637082023976e-06 0 -2.1276344100652924e-05 3.7156713662374351e-06 0 -3.4278294221845258e-05 -3.2706568553640401e-05 0 -2.9902706903887256e-05 -2.4036177425730078e-05 0 -3.4830268213095671e-05 -2.8184244463019167e-05 0 -5.518116677038064e-05 0.00032861014071896579 0 -3.4073699995915043e-05 0.00029561937478772251 0 -2.8202883166099438e-05 0.00032239718588432197 0 -8.1825415915305299e-05 -0.00016407299638606182 0 -8.9972708600300559e-05 -0.00015020907406026522 0 -9.4500908694637541e-05 -0.00016329099812460704 0 -1.8638251901781884e-05 1.8067246611335231e-06 0 -2.1276344100652924e-05 3.7156713662374351e-06 0 -1.5785230614021801e-05 5.8217637082023976e-06 0 -3.2050572271300531e-05 -3.2079580158768359e-05 0 -3.7141479194656045e-05 -3.4525778394961869e-05 0 -3.4423561861132868e-05 -3.6302121234631416e-05 0 -4.8378692970406958e-05 -4.8444657023572137e-05 0 -4.6483755427877894e-05 -5.0518550808816811e-05 0 -4.5760395961541762e-05 -4.5540536239722122e-05 0 -1.2717455685256232e-05 5.7436313203207769e-06 0 -1.4205037776593533e-05 2.908474922610602e-06 0 -1.5785230614021801e-05 5.8217637082023976e-06 0 -3.7673738562221163e-06 -5.6662866818178515e-07 0 -5.2127556976600962e-06 -1.1606381113894666e-07 0 -5.3096401798544285e-06 -8.3193794175839711e-07 0 -9.0604005312625707e-05 -7.2823711213286009e-05 0 -9.6095784243201488e-05 -8.7368077352255522e-05 0 -8.0329566590637061e-05 -7.667850907689449e-05 0 -1.2806847475611291e-05 1.0132988575308742e-06 0 -1.0068683571994493e-05 -1.1070330996880641e-07 0 -8.4060333647514952e-06 9.9816715758879315e-08 0 -8.0226401050392881e-06 2.3611680536429615e-06 0 -9.1406220762151576e-06 3.6480144289482956e-06 0 -7.4514917664474855e-06 1.722633800934815e-06 0 -1.8638251901781884e-05 1.8067246611335231e-06 0 -2.4559978085215216e-05 -1.8896310306869499e-06 0 -2.1276344100652924e-05 3.7156713662374351e-06 0 -0.0001554712705347793 0.00016605914999883961 0 -0.00014655484697594849 0.00013438308258246877 0 -0.00012278247065789776 0.00014456217848047908 0 -3.3476194404408495e-06 3.5893749075472008e-07 0 -2.6524030427024029e-06 2.6035201079802967e-07 0 -1.37167546317043e-06 2.0608510700866168e-07 0 -9.6547770013033329e-06 2.7050896350976586e-06 0 -1.055860344438389e-05 5.6157981911765992e-06 0 -1.2680728897762872e-05 5.1796242372293927e-06 0 -4.6153964336410831e-05 -3.2087213725783531e-05 0 -4.8174292433106386e-05 -3.2338992526655401e-05 0 -4.9721370108136305e-05 -3.718770522262753e-05 0 -7.4310061548971132e-05 -0.00010867575288660119 0 -8.4460222447547674e-05 -0.00010179516977665465 0 -8.8382996976275402e-05 -0.00011848387193344843 0 -1.2806847475611291e-05 1.0132988575308742e-06 0 -8.4060333647514952e-06 9.9816715758879315e-08 0 -1.0142843717297373e-05 1.3591401989351379e-06 0 -4.5340309272611913e-06 4.2713017420782719e-07 0 -3.1808422811856362e-06 1.7001666598913059e-07 0 -2.6524030427024029e-06 2.6035201079802967e-07 0 -1.5770235690279254e-05 5.0024927122960209e-06 0 -1.2680728897762872e-05 5.1796242372293927e-06 0 -1.7242733648293092e-05 8.3024644058827202e-06 0 -4.802434292796751e-05 -3.0252422707936014e-05 0 -4.8174292433106386e-05 -3.2338992526655401e-05 0 -4.4439167132048434e-05 -2.6537863859769224e-05 0 -5.7040658046951371e-05 -4.898363719737119e-05 0 -5.6633735673222364e-05 -5.0761423379337676e-05 0 -5.3954503036428009e-05 -4.6071414210493595e-05 0 -3.6384870060877826e-05 9.8219843762321533e-06 0 -2.8730907233551052e-05 6.1928724735555994e-06 0 -3.3281058064368365e-05 1.0438432832444852e-05 0 6.7388306659338216e-07 0.00028458943053450829 0 -3.4073699995915043e-05 0.00029561937478772251 0 -1.8317128921240472e-05 0.00026962291826201646 0 -0.00010638325706531313 -0.00014903205269551552 0 -8.9972708600300559e-05 -0.00015020907406026522 0 -9.5696492006443006e-05 -0.00013935626244116763 0 -6.5649494700916648e-06 1.2173932034366779e-06 0 -7.4514917664474855e-06 1.722633800934815e-06 0 -5.8082738861881246e-06 6.2951315908277338e-07 0 -8.0226401050392881e-06 2.3611680536429615e-06 0 -7.4514917664474855e-06 1.722633800934815e-06 0 -6.5649494700916648e-06 1.2173932034366779e-06 0 -0.0001238975112515921 0.00026289716450187057 0 -0.00013108403957170283 0.00029886641473785003 0 -0.00014650014372206817 0.00027521082330784818 0 -4.87002983791307e-05 -0.00012902926963284959 0 -4.8794608862235634e-05 -0.00014620425891258054 0 -4.0462173086634624e-05 -0.00013288792407622734 0 -7.361697032627446e-06 1.2339476323479469e-06 0 -9.7274186927292503e-06 9.245288969551459e-07 0 -9.3125488311631504e-06 2.3523479278515512e-06 0 -1.1735610403025145e-05 1.5352811886354878e-06 0 -9.3125488311631504e-06 2.3523479278515512e-06 0 -9.7274186927292503e-06 9.245288969551459e-07 0 -7.361697032627446e-06 1.2339476323479469e-06 0 -6.5649494700916648e-06 1.2173932034366779e-06 0 -5.377256091605406e-06 6.3411199214381368e-07 0 -2.3204527632115523e-05 -8.1929106166592503e-06 0 -2.3813045453380457e-05 -8.28868023956852e-06 0 -1.8466071469839977e-05 -5.6609023235797402e-06 0 -2.5297933454054546e-05 -1.2389226023671853e-05 0 -3.055863448128064e-05 -1.8203141406681667e-05 0 -2.5892958870146856e-05 -1.5014698177625867e-05 0 -3.0015080571398887e-05 -2.089386171185729e-05 0 -2.5892958870146856e-05 -1.5014698177625867e-05 0 -3.055863448128064e-05 -1.8203141406681667e-05 0 -2.3204527632115523e-05 -8.1929106166592503e-06 0 -1.8466071469839977e-05 -5.6609023235797402e-06 0 -1.7727820639070066e-05 -5.7312360644304831e-06 0 -4.3636762095548215e-05 8.7993071921029715e-05 0 -2.1839327062762546e-05 8.9069964929868779e-05 0 -2.8190687199275155e-05 0.00012074927868066767 0 -8.1745676057103824e-05 0.00028182149131920529 0 -8.1912282232541697e-05 0.00031648555249909821 0 -0.00010222993227947509 0.00030119342246949391 0 -6.7565896926899554e-05 -0.00014089060064773943 0 -6.9515695539199303e-05 -0.00015740177554514489 0 -6.041757297326172e-05 -0.00014919266251672817 0 -1.4789505795222537e-05 -3.3014623386012905e-06 0 -1.1548541803029662e-05 -1.8558200634966344e-06 0 -1.4763554144346745e-05 -3.9017820442833776e-06 0 -2.0012945679901034e-09 1.277462545960848e-10 0 -1.37167546317043e-06 2.0608510700866168e-07 0 -2.6524030427024029e-06 2.6035201079802967e-07 0 -1.3773456122621262e-05 8.9616957989020066e-06 0 -1.3648272391736119e-05 1.3763072697704654e-05 0 -1.8259016060179919e-05 1.408580614349978e-05 0 -3.8445839646196194e-05 -4.020139711043769e-05 0 -3.7141479194656045e-05 -3.4525778394961869e-05 0 -4.2132906563236558e-05 -4.114364383408315e-05 0 -4.1610895631848521e-05 -3.4696657042178824e-05 0 -4.3413531912533882e-05 -3.2237107398284889e-05 0 -4.4749799650833059e-05 -3.766715503174725e-05 0 -6.4695916756328245e-06 3.6179117771895907e-07 0 -8.6703365484388671e-06 -2.4976059990259586e-07 0 -7.9363150425835378e-06 4.6470892232979465e-07 0 -6.914704565938569e-05 -6.3170759946730998e-05 0 -8.0329566590637061e-05 -7.667850907689449e-05 0 -6.7252072454251338e-05 -7.4909850780803471e-05 0 -7.6909013320947906e-05 -8.6452613181734627e-05 0 -6.7252072454251338e-05 -7.4909850780803471e-05 0 -8.0329566590637061e-05 -7.667850907689449e-05 0 -1.98488847335013e-09 -1.0926123189883789e-10 0 -2.0012945679901961e-09 1.2774625459608692e-10 0 -1.6993311116884327e-06 3.8628464416260554e-08 0 -0.00011110879305223622 0.00016622780329615046 0 -0.00012278247065789776 0.00014456217848047908 0 -9.7190424790198198e-05 0.00014111817372639902 0 -0.00010093662603697492 0.00011527677583319649 0 -9.7190424790198198e-05 0.00014111817372639902 0 -0.00012278247065789776 0.00014456217848047908 0 -5.9034145480532119e-05 -5.4288858181725226e-05 0 -5.6633735673222364e-05 -5.0761423379337676e-05 0 -6.0173387034711735e-05 -5.309960247499993e-05 0 -4.2088231950550639e-05 -5.1891070289165223e-05 0 -3.8895327581241029e-05 -4.5890246962611442e-05 0 -4.1303990922660354e-05 -4.9026985068307741e-05 0 -2.3755860132351451e-05 1.2523149844092501e-05 0 -1.7242733648293092e-05 8.3024644058827202e-06 0 -1.8259016060179919e-05 1.408580614349978e-05 0 -5.343956705632563e-05 -4.9768070216134592e-05 0 -5.074426637475577e-05 -4.8479498749330736e-05 0 -5.1346105682233119e-05 -4.6069064913895327e-05 0 -1.4797798287966381e-05 1.7013399535117611e-05 0 -1.5642385641872013e-05 2.1960211643929104e-05 0 -1.2748545580243535e-05 2.2109129965786205e-05 0 -1.2806847475611291e-05 1.0132988575308742e-06 0 -1.0142843717297373e-05 1.3591401989351379e-06 0 -1.2635964190925357e-05 2.8647004556222159e-06 0 -4.3921181033742923e-05 2.6907969346318507e-05 0 -2.756386604154459e-05 2.0846390928815632e-05 0 -3.6434956532596969e-05 3.1845102038756795e-05 0 8.4021254974852186e-06 0.00012216445757423297 0 -1.2135265557353505e-05 0.00014550332622848165 0 -2.8190687199275155e-05 0.00012074927868066767 0 -1.4789505795222537e-05 -3.3014623386012905e-06 0 -1.1645499331989513e-05 -1.2954867830467627e-06 0 -1.1548541803029662e-05 -1.8558200634966342e-06 0 -8.1745676057103824e-05 0.00028182149131920529 0 -5.9844034419092906e-05 0.00029371472403456851 0 -8.1912282232541697e-05 0.00031648555249909821 0 -6.7565896926899554e-05 -0.00014089060064773943 0 -7.7901689430138357e-05 -0.00014761003567303642 0 -6.9515695539199303e-05 -0.00015740177554514489 0 -8.0466441990622096e-06 -3.81587162482793e-07 0 -9.9124767483529225e-06 -1.2910901632445986e-06 0 -1.1548541803029662e-05 -1.8558200634966342e-06 0 -2.8242308502116694e-05 -1.5644832450955534e-05 0 -3.3791967070724995e-05 -1.9409836698961637e-05 0 -3.0713969210489069e-05 -1.3491681526307621e-05 0 -3.9687324163335675e-05 0.00026206813457340549 0 -1.8317128921240472e-05 0.00026962291826201646 0 -3.4073699995915043e-05 0.00029561937478772251 0 -8.4840650862630482e-05 -0.00013383445176682327 0 -9.5696492006443006e-05 -0.00013935626244116761 0 -8.9972708600300559e-05 -0.00015020907406026522 0 -4.3555986470758709e-05 -1.8851604327550289e-05 0 -5.154226353346949e-05 -2.3689129389794533e-05 0 -4.2903950480556876e-05 -1.8796881765873639e-05 0 -7.6323920953676351e-05 2.9788888052398179e-05 0 -6.2639937297110404e-05 2.1176215247646501e-05 0 -6.0808501936123834e-05 2.1346642925814643e-05 0 -3.4053838466964012e-05 4.2216382088733188e-05 0 -3.9307130742824541e-05 6.1590131288301518e-05 0 -5.2948725152361459e-05 6.6170391848284924e-05 0 -1.9413925570758964e-05 -6.1043282437470596e-06 0 -2.4382102510171299e-05 -8.8923608847636559e-06 0 -2.2682809746827778e-05 -8.3399471781855047e-06 0 -6.5672222605452535e-05 -6.4184316355024853e-05 0 -6.1956838241882374e-05 -6.0814063378331809e-05 0 -6.2132095367862337e-05 -5.8038763960615311e-05 0 -6.5672222605452535e-05 -6.4184316355024853e-05 0 -6.2132095367862337e-05 -5.8038763960615311e-05 0 -6.453796033779401e-05 -6.1291440711960151e-05 0 -4.2674061393734706e-05 -4.7437659491725444e-05 0 -4.0049563213066404e-05 -4.4372411603190287e-05 0 -4.263357704931798e-05 -5.2002985580843623e-05 0 -4.2674061393734706e-05 -4.7437659491725444e-05 0 -4.263357704931798e-05 -5.2002985580843623e-05 0 -4.4167226397842923e-05 -5.4607766805710888e-05 0 -5.9034145480532119e-05 -5.4288858181725226e-05 0 -5.4998636706153388e-05 -5.2679733633549352e-05 0 -5.6633735673222364e-05 -5.0761423379337676e-05 0 -4.2088231950550639e-05 -5.1891070289165223e-05 0 -4.1303990922660354e-05 -4.9026985068307741e-05 0 -4.3681528805478272e-05 -5.3511850895369765e-05 0 -2.7434083143177146e-05 -2.9058222094768664e-05 0 -3.2359231032247491e-05 -3.5597531079331213e-05 0 -3.0762495102043416e-05 -3.3149610702438629e-05 0 -5.8181145415656754e-05 -4.5080434594975399e-05 0 -6.0251603982649555e-05 -5.0289061799802145e-05 0 -5.6075372231295179e-05 -4.5057705348049349e-05 0 -9.4097985785315672e-06 -1.3635338304376078e-07 0 -2.0912554129784836e-05 -9.2804112314243736e-06 0 -1.478361804961665e-05 -1.2338652664491975e-05 0 -5.518116677038064e-05 0.00032861014071896579 0 -3.5917379373186073e-05 0.00034978175141346191 0 -6.0861001924484686e-05 0.00035893486163162747 0 -0.00011404800609746952 0.00033154730354054894 0 -0.00010985080854159383 0.00036104399237270866 0 -0.00013723237302310361 0.00035538835561055033 0 -8.1825415915305299e-05 -0.00016407299638606182 0 -9.1982639578649198e-05 -0.00017513765594403711 0 -8.0120276521561751e-05 -0.00017769423136950602 0 -5.7360547387937732e-05 -0.00016334229471700178 0 -5.9887180265436812e-05 -0.00017689931324758803 0 -4.9923503896861611e-05 -0.00017261718107672316 0 -9.8077057973179761e-06 -1.5537290520342833e-07 0 -7.9363150425835378e-06 4.6470892232979465e-07 0 -8.6703365484388671e-06 -2.4976059990259586e-07 0 -5.518116677038064e-05 0.00032861014071896579 0 -2.8202883166099435e-05 0.00032239718588432197 0 -3.5917379373186073e-05 0.00034978175141346191 0 -8.1825415915305299e-05 -0.00016407299638606182 0 -9.4500908694637541e-05 -0.00016329099812460704 0 -9.1982639578649198e-05 -0.00017513765594403711 0 -3.0445549637744024e-05 -6.4635514474337147e-06 0 -2.7465051043048808e-05 -1.3518783702741429e-06 0 -2.4559978085215216e-05 -1.8896310306869499e-06 0 -0.00011404800609746952 0.00033154730354054894 0 -0.00013723237302310361 0.00035538835561055033 0 -0.00014274002588683863 0.00032852038269396046 0 -5.7360547387937732e-05 -0.00016334229471700178 0 -4.9923503896861611e-05 -0.00017261718107672316 0 -4.6379951111232501e-05 -0.0001595141524221948 0 -4.3135686306137591e-05 -8.2340108599932826e-05 0 -3.3258007800732187e-05 -7.2330655874141856e-05 0 -4.003626332561232e-05 -6.4108251460779394e-05 0 -4.3717480594764257e-05 -2.3959747060028814e-05 0 -4.4439167132048434e-05 -2.6537863859769224e-05 0 -4.0452122346834559e-05 -1.9496606639265051e-05 0 -4.1311778732714656e-05 -2.248268564869301e-05 0 -4.0452122346834559e-05 -1.9496606639265051e-05 0 -4.4439167132048434e-05 -2.6537863859769224e-05 0 -1.5770235690279254e-05 5.0024927122960209e-06 0 -1.7472259709866458e-05 3.260430425577512e-06 0 -1.2635964190925357e-05 2.8647004556222159e-06 0 -7.4776402852257579e-05 0.00013583044573614849 0 -5.2137811490275563e-05 0.00012686135580673217 0 -6.2245155959009593e-05 0.00016006313618885325 0 -9.6095784243201488e-05 -8.7368077352255522e-05 0 -8.7213615146813364e-05 -9.0513127783156159e-05 0 -8.0329566590637061e-05 -7.667850907689449e-05 0 -1.8265031917487237e-05 2.0905307955006765e-05 0 -2.756386604154459e-05 2.0846390928815628e-05 0 -1.8259016060179919e-05 1.408580614349978e-05 0 -2.3755860132351451e-05 1.2523149844092501e-05 0 -1.8259016060179919e-05 1.408580614349978e-05 0 -2.756386604154459e-05 2.0846390928815628e-05 0 -9.5048941287765091e-06 3.9412786556165409e-06 0 -1.0859207705875545e-05 4.0342682255220415e-06 0 -1.1215920681290675e-05 6.8158244769981804e-06 0 -4.5542344902045528e-05 -4.1944608142164302e-05 0 -4.5760395961541762e-05 -4.5540536239722122e-05 0 -4.2132906563236558e-05 -4.114364383408315e-05 0 -4.3660805036986284e-05 -4.6765953361229185e-05 0 -4.2132906563236558e-05 -4.114364383408315e-05 0 -4.5760395961541762e-05 -4.5540536239722122e-05 0 -0.00012166625798358393 7.9268487522436443e-05 0 -0.00010681666189850347 5.804345568201442e-05 0 -9.5234840328902088e-05 6.2363972075098813e-05 0 -6.8284290693137041e-05 -3.78403073560361e-05 0 -7.6417640193989438e-05 -4.7709333189066357e-05 0 -6.3353119828260814e-05 -3.9320181353303614e-05 0 -2.840548283294774e-09 -4.8266425245631549e-10 0 -2.4261704738536148e-09 -3.7966055753291792e-10 0 -2.2814550813938145e-06 -6.9512683268939128e-07 0 -2.5997052740118877e-09 2.2993205005648145e-10 0 -2.9008936861690884e-09 2.052360123446705e-10 0 -2.5521658644709365e-06 2.6628253144816899e-07 0 -1.3773456122621262e-05 8.9616957989020066e-06 0 -1.0558603444383888e-05 5.6157981911765992e-06 0 -1.1912858277137057e-05 8.8088578579784158e-06 0 -1.2717455685256232e-05 5.7436313203207769e-06 0 -1.1215920681290675e-05 6.8158244769981804e-06 0 -1.0859207705875545e-05 4.0342682255220415e-06 0 -9.5048941287765091e-06 3.9412786556165409e-06 0 -1.055860344438389e-05 5.6157981911765983e-06 0 -9.1406220762151576e-06 3.6480144289482956e-06 0 -1.6871967768786392e-05 1.1726029135963073e-06 0 -2.2664166804472787e-05 3.3582244295769199e-06 0 -1.7611369232233877e-05 2.2740201525622927e-06 0 -1.3815181255453637e-05 -3.6525845951572327e-06 0 -1.372101540243823e-05 -4.3655160866162885e-06 0 -1.7727820639070066e-05 -5.7312360644304831e-06 0 -3.4741581210327226e-05 0.00015716795081286613 0 -2.8190687199275155e-05 0.00012074927868066767 0 -1.2135265557353505e-05 0.00014550332622848165 0 -1.6871967768786392e-05 1.1726029135963073e-06 0 -1.7611369232233873e-05 2.2740201525622922e-06 0 -1.2986779410866948e-05 5.5608273840723165e-07 0 -1.3815181255453637e-05 -3.6525845951572327e-06 0 -1.0491955796735342e-05 -2.6584129807479516e-06 0 -1.372101540243823e-05 -4.3655160866162885e-06 0 -5.1844156440455351e-05 -4.2203778484415138e-05 0 -5.3954503036428009e-05 -4.6071414210493595e-05 0 -5.1346105682233119e-05 -4.6069064913895327e-05 0 -4.3636762095548215e-05 8.7993071921029715e-05 0 -2.7063622743591237e-05 5.5576372588689696e-05 0 -2.1839327062762546e-05 8.9069964929868779e-05 0 -9.6547770013033329e-06 2.7050896350976586e-06 0 -9.1406220762151576e-06 3.6480144289482956e-06 0 -1.055860344438389e-05 5.6157981911765992e-06 0 -3.8445839646196194e-05 -4.020139711043769e-05 0 -3.4423561861132868e-05 -3.6302121234631416e-05 0 -3.7141479194656045e-05 -3.4525778394961869e-05 0 -4.3769507251143136e-09 -4.1199305919163183e-10 0 -3.4848764388691166e-09 -6.7483367109337731e-10 0 -3.3931637522862279e-06 -9.9654291932000423e-07 0 -3.3157101370200464e-09 1.9659142185774936e-10 0 -3.8673535391525331e-09 -6.4988422464612015e-11 0 -3.1841270785160225e-06 -1.662334707767851e-08 0 -2.8720478356520037e-05 -1.1987789037642196e-05 0 -3.6065857994146394e-05 -1.5042796903512986e-05 0 -2.9385880226446132e-05 -1.1396689761221678e-05 0 -5.0233844241774435e-05 1.5284647386528908e-05 0 -3.8801226412805418e-05 1.1354993229643761e-05 0 -4.0500062170649666e-05 1.0286391290176331e-05 0 -4.0977423397102132e-05 -3.2678534747560863e-05 0 -4.4649650667841274e-05 -2.9629779335729154e-05 0 -4.8629441374020725e-05 -3.753499233552742e-05 0 -2.3937205493577766e-05 -6.2829991434532485e-05 0 -3.1390961122671233e-05 -5.7161627413844772e-05 0 -3.325800780073218e-05 -7.2330655874141842e-05 0 -2.6263342427636216e-05 -7.3461581560648924e-06 0 -2.6059464347587066e-05 -1.0745411119915929e-05 0 -3.0713969210489069e-05 -1.3491681526307621e-05 0 -1.4400213380512464e-05 -6.5211488272468288e-08 0 -1.4205037776593535e-05 2.908474922610602e-06 0 -1.1735610403025145e-05 1.5352811886354878e-06 0 -1.7039399606834972e-05 -2.7716261115049288e-08 0 -1.4205037776593535e-05 2.908474922610602e-06 0 -1.4400213380512464e-05 -6.5211488272468288e-08 0 -1.2453732589381125e-05 1.0755621842635593e-05 0 -1.3648272391736119e-05 1.3763072697704654e-05 0 -1.1912858277137057e-05 8.8088578579784158e-06 0 -1.3773456122621262e-05 8.9616957989020066e-06 0 -1.1912858277137057e-05 8.8088578579784158e-06 0 -1.3648272391736119e-05 1.3763072697704654e-05 0 -4.3503310038304458e-05 -5.0316636513477645e-05 0 -4.6133642341043881e-05 -5.3869731795858051e-05 0 -4.3681528805478272e-05 -5.3511850895369765e-05 0 -5.1421863599644929e-05 -3.2896034297572064e-05 0 -4.802434292796751e-05 -3.0252422707936014e-05 0 -4.6276958985155238e-05 -2.6924997059438845e-05 0 -2.8242308502116694e-05 -1.5644832450955534e-05 0 -2.9136591099183655e-05 -2.1207511867905072e-05 0 -3.3791967070724995e-05 -1.9409836698961637e-05 0 -3.0287261346430936e-05 -2.7422056478874829e-05 0 -3.3791967070724995e-05 -1.9409836698961637e-05 0 -2.9136591099183655e-05 -2.1207511867905072e-05 0 -2.1654840321686258e-05 -9.4596217657831812e-06 0 -2.8720478356520041e-05 -1.1987789037642197e-05 0 -2.4235243183530958e-05 -9.4086473991267582e-06 0 -3.8801226412805418e-05 1.1354993229643761e-05 0 -2.8385403193178639e-05 8.6188240546431646e-06 0 -3.2568253322508956e-05 7.9595215549882975e-06 0 -4.8401630884513765e-05 -5.9724605002124522e-05 0 -4.5768147214505668e-05 -5.9506543158104156e-05 0 -4.7326079391759023e-05 -5.7095325046838866e-05 0 -2.756386604154459e-05 2.0846390928815628e-05 0 -2.5962972668877075e-05 2.8050814101955863e-05 0 -3.6434956532596969e-05 3.1845102038756795e-05 0 -7.361697032627446e-06 1.2339476323479469e-06 0 -8.0226401050392881e-06 2.3611680536429615e-06 0 -6.5649494700916648e-06 1.2173932034366779e-06 0 -7.339450858678985e-06 -4.559385617902826e-07 0 -1.1325483161153451e-05 -2.4561920413158506e-07 0 -1.2986779410866948e-05 5.5608273840723165e-07 0 -6.0474279352823763e-06 -1.0862308231680064e-06 0 -1.0491955796735342e-05 -2.6584129807479516e-06 0 -9.5803410320504418e-06 -1.9356380500692592e-06 0 -8.0466441990622096e-06 -3.81587162482793e-07 0 -7.8510991795469264e-06 -5.4676969145268422e-07 0 -9.9124767483529225e-06 -1.2910901632445986e-06 0 -2.6263342427636216e-05 -7.3461581560648924e-06 0 -2.8351668075207612e-05 -6.553059184556644e-06 0 -2.4559978085215216e-05 -1.8896310306869499e-06 0 -3.8635052745269542e-05 -4.4615470658543449e-05 0 -4.0335602130950771e-05 -4.4827198568004355e-05 0 -4.1303990922660354e-05 -4.9026985068307741e-05 0 -1.1714224926057546e-05 -2.2090944441964074e-06 0 -9.9124767483529208e-06 -1.2910901632445984e-06 0 -7.8510991795469264e-06 -5.4676969145268422e-07 0 -0.0001664252452241019 0.00023283828842064571 0 -0.0001330027151733059 0.00021475729888407631 0 -0.00014196222791490912 0.00024598481721559178 0 -2.7727027520950522e-05 -0.00010950503219394317 0 -4.0102813488171007e-05 -0.00010459331622984162 0 -3.9553851357488941e-05 -0.00011894213202776864 0 -2.5859941610862179e-05 -9.3801432904737372e-05 0 -3.6054152420648447e-05 -8.9375556673749662e-05 0 -4.0102813488171007e-05 -0.00010459331622984162 0 -3.6814693200922808e-05 -1.6001447699182707e-05 0 -3.3414341923082942e-05 -9.8143323817266762e-06 0 -3.5965028872896484e-05 -1.3698071563578939e-05 0 -5.1421863599644929e-05 -3.2896034297572064e-05 0 -5.1709036531883674e-05 -3.542126833181184e-05 0 -4.802434292796751e-05 -3.0252422707936014e-05 0 -1.4789505795222537e-05 -3.3014623386012905e-06 0 -1.918949407336087e-05 -6.8124798319519157e-06 0 -1.6948576835861084e-05 -4.0188006220195524e-06 0 -3.0445549637744024e-05 -6.4635514474337147e-06 0 -2.4559978085215216e-05 -1.8896310306869499e-06 0 -2.8351668075207612e-05 -6.5530591845566431e-06 0 -6.8218478086621547e-06 0.00034490735165628198 0 -2.5434724600688578e-05 0.00036250770402955501 0 -3.5917379373186073e-05 0.00034978175141346191 0 -0.00010661851583867752 -0.00017676335538291163 0 -9.7902628399737369e-05 -0.00018235013470767531 0 -9.1982639578649198e-05 -0.00017513765594403711 0 -3.8179275122058498e-05 -0.00016971748923651938 0 -4.9923503896861604e-05 -0.00017261718107672316 0 -4.593841925575987e-05 -0.00017806749082487045 0 -0.00017014932957025414 0.00035898335543732291 0 -0.00013723237302310361 0.00035538835561055033 0 -0.00015053625864974954 0.00037159481651611996 0 -1.7737947429533335e-05 -2.713136781936114e-06 0 -1.4295381560147964e-05 -1.7430655138646765e-06 0 -1.6948576835861084e-05 -4.0188006220195524e-06 0 -1.4789505795222537e-05 -3.3014623386012905e-06 0 -1.6948576835861084e-05 -4.0188006220195524e-06 0 -1.4295381560147964e-05 -1.7430655138646765e-06 0 -2.2906350346335195e-05 -1.1767510910474047e-05 0 -1.918949407336087e-05 -6.8124798319519149e-06 0 -1.9973036550389302e-05 -8.3193638169520027e-06 0 -5.9128977711652138e-05 2.4429875195586307e-05 0 -6.0808501936123834e-05 2.1346642925814643e-05 0 -4.5997949420527467e-05 1.4912305905451427e-05 0 -4.9352889658997355e-05 1.4237897046696061e-05 0 -4.5997949420527467e-05 1.4912305905451427e-05 0 -6.0808501936123834e-05 2.1346642925814643e-05 0 -2.3755860132351451e-05 1.2523149844092501e-05 0 -2.840245012888738e-05 1.0914989325470358e-05 0 -2.0867075882598746e-05 7.1580342771810055e-06 0 -2.5297933454054546e-05 -1.2389226023671853e-05 0 -1.990638301671467e-05 -7.7867950684058178e-06 0 -2.1555516426487077e-05 -8.2872212951591608e-06 0 -2.8242308502116694e-05 -1.5644832450955534e-05 0 -2.6549567782562986e-05 -1.7310588631727862e-05 0 -2.9136591099183655e-05 -2.1207511867905072e-05 0 -1.3815181255453637e-05 -3.6525845951572327e-06 0 -1.1073267158245812e-05 -2.1568607454244434e-06 0 -9.5803410320504418e-06 -1.9356380500692592e-06 0 -6.6535778015288513e-06 -7.9084332204143975e-07 0 -9.5803410320504418e-06 -1.9356380500692592e-06 0 -1.1073267158245813e-05 -2.1568607454244438e-06 0 -7.3968407651949188e-06 -9.6375427954717528e-07 0 -1.2033374134983561e-05 -1.5283502212223702e-07 0 -1.1325483161153453e-05 -2.456192041315849e-07 0 -1.6871967768786392e-05 1.1726029135963073e-06 0 -1.1325483161153451e-05 -2.4561920413158511e-07 0 -1.2033374134983561e-05 -1.5283502212223702e-07 0 -7.6909013320947906e-05 -8.6452613181734627e-05 0 -8.4460222447547674e-05 -0.00010179516977665465 0 -7.2581952771921866e-05 -9.5093736983815059e-05 0 -7.4310061548971132e-05 -0.00010867575288660119 0 -7.2581952771921866e-05 -9.5093736983815059e-05 0 -8.4460222447547674e-05 -0.00010179516977665465 0 -3.0768138768884874e-06 -1.0076122181615236e-06 0 -2.2814550813938145e-06 -6.9512683268939128e-07 0 -5.3096401798544285e-06 -8.3193794175839711e-07 0 -3.7673738562221163e-06 -5.6662866818178515e-07 0 -5.3096401798544285e-06 -8.3193794175839711e-07 0 -2.2814550813938145e-06 -6.9512683268939128e-07 0 -4.5644080411602558e-06 2.0140075293842835e-07 0 -2.5521658644709365e-06 2.6628253144816899e-07 0 -5.5263058635593913e-06 -6.7800761302013838e-08 0 -3.1405953755621697e-06 1.6046648521760926e-07 0 -5.5263058635593913e-06 -6.7800761302013838e-08 0 -2.5521658644709365e-06 2.6628253144816899e-07 0 -8.1745676057103824e-05 0.00028182149131920529 0 -6.2205080463836919e-05 0.00026303766148838819 0 -5.9844034419092906e-05 0.00029371472403456851 0 -6.7565896926899554e-05 -0.00014089060064773943 0 -7.4677853174010407e-05 -0.00013299720786194092 0 -7.7901689430138357e-05 -0.00014761003567303642 0 -1.3354682969081627e-05 -3.0443978395263576e-06 0 -1.0340487011221865e-05 -1.7374221416630752e-06 0 -1.1073267158245813e-05 -2.1568607454244438e-06 0 -1.2806847475611291e-05 1.0132988575308742e-06 0 -1.2033374134983561e-05 -1.5283502212223702e-07 0 -1.0068683571994493e-05 -1.1070330996880641e-07 0 -2.5297933454054546e-05 -1.2389226023671853e-05 0 -2.5892958870146856e-05 -1.5014698177625867e-05 0 -2.1967792152811321e-05 -1.0296292772163972e-05 0 -1.3815181255453637e-05 -3.6525845951572327e-06 0 -1.5583975207133556e-05 -4.1415583364612602e-06 0 -1.1073267158245813e-05 -2.1568607454244438e-06 0 -1.6871967768786392e-05 1.1726029135963073e-06 0 -1.2033374134983561e-05 -1.5283502212223702e-07 0 -1.7360755321126614e-05 1.4946413921911345e-06 0 -3.0287261346430936e-05 -2.7422056478874829e-05 0 -3.7512435748389875e-05 -2.1153661538712067e-05 0 -3.3791967070724995e-05 -1.9409836698961637e-05 0 -1.4789505795222537e-05 -3.3014623386012905e-06 0 -1.7083572602695072e-05 -5.5495003218106738e-06 0 -1.918949407336087e-05 -6.8124798319519157e-06 0 -4.8270660595671788e-09 -1.0403877164392101e-09 0 -4.3769507251143136e-09 -4.1199305919163183e-10 0 -3.5961562040724238e-06 -7.3437421660764743e-07 0 -3.8673535391525331e-09 -6.4988422464612015e-11 0 -4.0267187973490226e-09 3.1498885025320847e-10 0 -3.1291111902566196e-06 -2.4913896529229135e-07 0 -1.8265031917487237e-05 2.0905307955006765e-05 0 -1.8259016060179919e-05 1.408580614349978e-05 0 -1.3648272391736119e-05 1.3763072697704654e-05 0 -4.8515451309868477e-05 -5.4093156606512255e-05 0 -4.9693633896653464e-05 -5.7124127370124827e-05 0 -4.7326079391759023e-05 -5.7095325046838866e-05 0 -2.5297933454054546e-05 -1.2389226023671853e-05 0 -2.6476188203070101e-05 -1.1686999915617326e-05 0 -3.1179397276911666e-05 -1.6136182608451851e-05 0 -4.003626332561232e-05 -6.4108251460779394e-05 0 -3.325800780073218e-05 -7.2330655874141842e-05 0 -3.1390961122671233e-05 -5.7161627413844772e-05 0 -1.7737947429533335e-05 -2.713136781936114e-06 0 -1.4400213380512464e-05 -6.5211488272468288e-08 0 -1.4295381560147964e-05 -1.7430655138646765e-06 0 -2.2564424281822596e-05 -8.8219900825216942e-06 0 -1.9662020504699032e-05 -5.7356677939623501e-06 0 -1.918949407336087e-05 -6.8124798319519157e-06 0 -1.1563115077291074e-05 1.289975756752718e-06 0 -1.7025812307787258e-05 4.1043619411151363e-06 0 -8.2066781124267428e-06 1.9730065880146894e-06 0 -9.0733628058880572e-06 -2.8425616058859207e-06 0 -6.3953890336794002e-06 -2.6821333380858787e-06 0 -1.313035759284579e-05 -5.3700595493379739e-06 0 -3.0015080571398887e-05 -2.089386171185729e-05 0 -2.9902706903887256e-05 -2.4036177425730082e-05 0 -2.6549567782562986e-05 -1.7310588631727862e-05 0 -1.1735610403025145e-05 1.5352811886354878e-06 0 -1.1575087216275777e-05 -1.2253906397285517e-07 0 -1.4400213380512464e-05 -6.5211488272468288e-08 0 -1.8136284369005408e-05 -6.6264208521913232e-06 0 -1.990638301671467e-05 -7.7867950684058178e-06 0 -2.1967792152811321e-05 -1.0296292772163972e-05 0 -4.2123157343841098e-05 -1.9854389957271975e-05 0 -4.4058502698136207e-05 -2.422906986433432e-05 0 -3.6752480967101985e-05 -1.8599990435659562e-05 0 -0.00016209259302565584 0.00019939419223442622 0 -0.00013445282145692447 0.00018444999371018466 0 -0.0001330027151733059 0.00021475729888407631 0 -3.0015080571398887e-05 -2.089386171185729e-05 0 -3.055863448128064e-05 -1.8203141406681667e-05 0 -3.5670368763171782e-05 -2.4374757716283395e-05 0 -3.5965028872896484e-05 -1.3698071563578939e-05 0 -4.0452122346834559e-05 -1.9496606639265051e-05 0 -3.8658333100921664e-05 -1.806301447019086e-05 0 -2.5297933454054546e-05 -1.2389226023671853e-05 0 -3.1179397276911666e-05 -1.6136182608451851e-05 0 -3.055863448128064e-05 -1.8203141406681667e-05 0 -1.4295381560147964e-05 -1.7430655138646765e-06 0 -1.4400213380512464e-05 -6.5211488272468288e-08 0 -1.1575087216275777e-05 -1.2253906397285517e-07 0 -4.3717480594764257e-05 -2.3959747060028814e-05 0 -4.6276958985155245e-05 -2.6924997059438845e-05 0 -4.802434292796751e-05 -3.0252422707936014e-05 0 -1.8265031917487237e-05 2.0905307955006765e-05 0 -1.2748545580243535e-05 2.2109129965786205e-05 0 -1.8747223574476022e-05 3.0977712446969609e-05 0 -2.5297933454054546e-05 -1.2389226023671853e-05 0 -2.1555516426487077e-05 -8.2872212951591608e-06 0 -2.6476188203070101e-05 -1.1686999915617326e-05 0 -0.0001689725984927427 0.00026589564324268708 0 -0.0001664252452241019 0.00023283828842064571 0 -0.00014196222791490912 0.00024598481721559178 0 -2.7727027520950522e-05 -0.00010950503219394317 0 -3.9553851357488941e-05 -0.00011894213202776864 0 -3.0030091781242232e-05 -0.00012523908630482342 0 -2.4483666939153873e-05 -7.8255693047944475e-05 0 -3.6054152420648447e-05 -8.9375556673749662e-05 0 -2.5859941610862179e-05 -9.3801432904737372e-05 0 -4.3921181033742923e-05 2.6907969346318507e-05 0 -6.0200257259204505e-05 3.2234096146594555e-05 0 -4.9382062423666512e-05 2.2078747038655817e-05 0 -9.4097985785315672e-06 -1.3635338304376078e-07 0 -2.0541529589928462e-05 9.6454673327045136e-06 0 -2.0912554129784836e-05 -9.2804112314243736e-06 0 -4.2123157343841098e-05 -1.9854389957271975e-05 0 -4.2903950480556876e-05 -1.8796881765873639e-05 0 -4.9196317325333783e-05 -2.313428635610691e-05 0 -5.9128977711652138e-05 2.4429875195586307e-05 0 -7.1497174738978451e-05 2.9020486209739127e-05 0 -6.0808501936123834e-05 2.1346642925814643e-05 0 -4.2123157343841098e-05 -1.9854389957271975e-05 0 -4.9196317325333783e-05 -2.313428635610691e-05 0 -5.1210935357599452e-05 -2.6465144464456905e-05 0 -5.9128977711652138e-05 2.4429875195586307e-05 0 -7.4007423782761878e-05 3.5683648544815498e-05 0 -7.1497174738978451e-05 2.9020486209739127e-05 0 -9.0733628058880572e-06 -2.8425616058859207e-06 0 -4.4470680854570195e-06 -1.1481711213682713e-06 0 -6.3953890336794002e-06 -2.6821333380858787e-06 0 -1.1563115077291074e-05 1.289975756752718e-06 0 -8.2066781124267428e-06 1.9730065880146894e-06 0 -5.6089894575218818e-06 1.6276317305212025e-07 0 -2.2564424281822596e-05 -8.8219900825216942e-06 0 -2.4862050168724193e-05 -1.298479493448533e-05 0 -2.6059464347587066e-05 -1.0745411119915929e-05 0 -2.8242308502116694e-05 -1.5644832450955534e-05 0 -2.6059464347587066e-05 -1.0745411119915929e-05 0 -2.4862050168724193e-05 -1.298479493448533e-05 0 -6.0251603982649555e-05 -5.0289061799802145e-05 0 -5.9212101365952106e-05 -5.0140731006800649e-05 0 -5.6075372231295179e-05 -4.5057705348049349e-05 0 -3.0762495102043416e-05 -3.3149610702438629e-05 0 -3.2359231032247491e-05 -3.5597531079331213e-05 0 -3.5107616498711145e-05 -3.9796517437610713e-05 0 -1.478361804961665e-05 -1.2338652664491975e-05 0 -2.0912554129784836e-05 -9.2804112314243736e-06 0 -2.2579496047667892e-05 -1.8862890828483317e-05 0 -2.7434083143177146e-05 -2.9058222094768664e-05 0 -2.8831761650819998e-05 -3.0430567892191356e-05 0 -3.2359231032247491e-05 -3.5597531079331213e-05 0 -5.8181145415656754e-05 -4.5080434594975399e-05 0 -5.6075372231295179e-05 -4.5057705348049349e-05 0 -5.4305135309166807e-05 -4.0400144667455979e-05 0 -2.5297933454054546e-05 -1.2389226023671853e-05 0 -2.1967792152811321e-05 -1.0296292772163972e-05 0 -1.990638301671467e-05 -7.7867950684058178e-06 0 -2.2906350346335195e-05 -1.1767510910474047e-05 0 -2.6549567782562986e-05 -1.7310588631727862e-05 0 -2.4862050168724193e-05 -1.298479493448533e-05 0 -2.8242308502116694e-05 -1.5644832450955534e-05 0 -2.4862050168724193e-05 -1.298479493448533e-05 0 -2.6549567782562986e-05 -1.7310588631727862e-05 0 -1.7737947429533335e-05 -2.713136781936114e-06 0 -2.2216937745278444e-05 -6.2752443016734854e-06 0 -2.1191798887912374e-05 -2.5745210198130735e-06 0 -0.00016209259302565584 0.00019939419223442622 0 -0.0001554712705347793 0.00016605914999883961 0 -0.00013445282145692447 0.00018444999371018466 0 -3.0445549637744024e-05 -6.4635514474337147e-06 0 -2.8351668075207612e-05 -6.5530591845566423e-06 0 -3.2077929277863831e-05 -1.0802152452381981e-05 0 -3.4053838466964012e-05 4.2216382088733188e-05 0 -2.5962972668877075e-05 2.8050814101955863e-05 0 -1.8747223574476022e-05 3.0977712446969609e-05 0 -1.8265031917487237e-05 2.0905307955006765e-05 0 -1.8747223574476022e-05 3.0977712446969609e-05 0 -2.5962972668877075e-05 2.8050814101955863e-05 0 -2.3937205493577766e-05 -6.2829991434532485e-05 0 -3.325800780073218e-05 -7.2330655874141842e-05 0 -2.4483666939153873e-05 -7.8255693047944475e-05 0 -9.1274180709729631e-05 4.1506532538008454e-05 0 -7.1497174738978451e-05 2.9020486209739127e-05 0 -7.4007423782761878e-05 3.5683648544815498e-05 0 -5.9863399467921001e-05 -2.9832068153709481e-05 0 -5.1210935357599452e-05 -2.6465144464456905e-05 0 -4.9196317325333783e-05 -2.313428635610691e-05 0 -2.6263342427636216e-05 -7.3461581560648924e-06 0 -3.2077929277863825e-05 -1.0802152452381979e-05 0 -2.8351668075207612e-05 -6.5530591845566431e-06 0 -0.00010123166957489872 0.00021349640320827507 0 -0.0001330027151733059 0.00021475729888407631 0 -0.00011373370300283416 0.0001898969829130484 0 -0.00010123166957489872 0.00021349640320827507 0 -0.00012008554604347782 0.00023614996059415262 0 -0.0001330027151733059 0.00021475729888407631 0 -5.2504194617652991e-05 -0.00010648458176436767 0 -4.7512930292682774e-05 -0.00011597623145806707 0 -4.0102813488171007e-05 -0.00010459331622984162 0 -5.2504194617652991e-05 -0.00010648458176436767 0 -4.0102813488171e-05 -0.00010459331622984162 0 -4.5020548340274858e-05 -9.546343690993067e-05 0 -3.0030091781242232e-05 -0.00012523908630482342 0 -4.0462173086634624e-05 -0.00013288792407622734 0 -3.2803654326266791e-05 -0.0001409416966502549 0 -0.00016998470136569949 0.00029814959434744739 0 -0.0001689725984927427 0.00026589564324268708 0 -0.00014650014372206817 0.00027521082330784818 0 -8.1872802234878396e-06 -8.7629282243366624e-07 0 -6.6598073730525793e-06 -5.2083933750855924e-07 0 -1.0340487011221867e-05 -1.7374221416630752e-06 0 -7.4481855491443404e-06 -6.4752278098350371e-07 0 -1.0068683571994493e-05 -1.1070330996880641e-07 0 -6.4141373482072712e-06 -1.1171928295440175e-06 0 -5.2504194617652991e-05 -0.00010648458176436767 0 -6.0902746528758415e-05 -0.00010786832030120822 0 -5.6256690577952588e-05 -0.00012019686796968769 0 -5.2504194617652991e-05 -0.00010648458176436767 0 -5.2828921464344941e-05 -9.4076307707075516e-05 0 -6.0902746528758415e-05 -0.00010786832030120822 0 -6.7037837002039891e-05 -0.00012310020679287924 0 -5.6256690577952588e-05 -0.00012019686796968769 0 -6.0902746528758415e-05 -0.00010786832030120822 0 -6.262216700656969e-05 -9.4249674481313898e-05 0 -6.0902746528758415e-05 -0.00010786832030120822 0 -5.2828921464344941e-05 -9.4076307707075516e-05 0 -0.00010123166957489872 0.00021349640320827507 0 -8.0092846025089264e-05 0.00021525314726112123 0 -0.00010078504022191285 0.00024345837790053384 0 -7.5916726886214925e-05 0.00024272446073497016 0 -0.00010078504022191285 0.00024345837790053384 0 -8.0092846025089264e-05 0.00021525314726112123 0 -3.8673535391525331e-09 -6.4988422464612015e-11 0 -3.1291111902566196e-06 -2.4913896529229135e-07 0 -3.1841270785160225e-06 -1.662334707767851e-08 0 -4.3769507251143136e-09 -4.1199305919163183e-10 0 -3.3931637522862279e-06 -9.9654291932000423e-07 0 -3.5961562040724238e-06 -7.3437421660764743e-07 0 -6.7268052391425298e-05 -5.0167067603706076e-05 0 -5.5808432158403638e-05 -3.8675357352811213e-05 0 -6.3353119828260814e-05 -3.9320181353303614e-05 0 -9.9865150282187973e-05 8.4530613651394854e-05 0 -9.5234840328902088e-05 6.2363972075098813e-05 0 -8.0538482681499079e-05 6.0310000582765834e-05 0 -2.9607850134570684e-05 -1.1575342599595969e-05 0 -3.6728090930112715e-05 -1.5649806420850577e-05 0 -3.4461811687618202e-05 -1.5250681874735854e-05 0 -9.8077057973179761e-06 -1.5537290520342833e-07 0 -1.1645499331989513e-05 -1.2954867830467625e-06 0 -1.1575087216275777e-05 -1.2253906397285517e-07 0 -4.5288069853592831e-05 -5.5963194816084244e-05 0 -4.3681528805478272e-05 -5.3511850895369765e-05 0 -4.6133642341043881e-05 -5.3869731795858051e-05 0 -3.0625832620971287e-05 6.1725060002747211e-06 0 -3.686700223406011e-05 8.6360496976180166e-06 0 -4.0500062170649666e-05 1.0286391290176331e-05 0 -4.9352889658997355e-05 1.4237897046696061e-05 0 -4.0500062170649666e-05 1.0286391290176331e-05 0 -3.686700223406011e-05 8.6360496976180166e-06 0 -5.8082738861881246e-06 6.2951315908277338e-07 0 -5.2127556976600962e-06 -1.1606381113894666e-07 0 -3.9606366269644668e-06 -1.6769369846304005e-07 0 -1.968629552960131e-05 -1.9478068074368376e-05 0 -2.683406030686157e-05 -2.6128900474739351e-05 0 -2.3672286220583729e-05 -2.4614610346579164e-05 0 -5.9863399467921001e-05 -2.9832068153709481e-05 0 -5.9152698111358752e-05 -3.2831673024473769e-05 0 -5.1210935357599452e-05 -2.6465144464456905e-05 0 -9.1274180709729631e-05 4.1506532538008454e-05 0 -7.4007423782761864e-05 3.5683648544815491e-05 0 -8.8542994716571828e-05 4.7828310765722675e-05 0 -3.9637793274687007e-05 -2.2993408853745518e-05 0 -4.1292234848564332e-05 -2.1297214374648722e-05 0 -3.7512435748389875e-05 -2.1153661538712067e-05 0 -1.6871967768786392e-05 1.1726029135963073e-06 0 -1.7360755321126614e-05 1.4946413921911345e-06 0 -2.4672777138133105e-05 3.7536864115661696e-06 0 -2.1542079376979603e-05 3.7287393792717881e-06 0 -2.4672777138133105e-05 3.7536864115661701e-06 0 -1.7360755321126614e-05 1.4946413921911345e-06 0 -4.3636762095548215e-05 8.7993071921029715e-05 0 -3.9307130742824541e-05 6.1590131288301531e-05 0 -2.7063622743591237e-05 5.5576372588689696e-05 0 -3.8801226412805418e-05 1.1354993229643761e-05 0 -3.2568253322508956e-05 7.9595215549882975e-06 0 -4.0500062170649666e-05 1.0286391290176331e-05 0 -2.8720478356520037e-05 -1.1987789037642196e-05 0 -2.9385880226446132e-05 -1.1396689761221678e-05 0 -2.4235243183530958e-05 -9.4086473991267582e-06 0 -4.5542344902045528e-05 -4.1944608142164302e-05 0 -4.4749799650833059e-05 -3.766715503174725e-05 0 -4.8567726791464242e-05 -4.2169494512024749e-05 0 -4.728120050820708e-05 -3.7372598573653128e-05 0 -4.8567726791464242e-05 -4.2169494512024749e-05 0 -4.4749799650833059e-05 -3.766715503174725e-05 0 -1.7737947429533335e-05 -2.713136781936114e-06 0 -1.7039399606834972e-05 -2.7716261115049288e-08 0 -1.4400213380512464e-05 -6.5211488272468288e-08 0 -2.3755860132351451e-05 1.2523149844092501e-05 0 -2.0867075882598746e-05 7.1580342771810046e-06 0 -1.7242733648293092e-05 8.3024644058827202e-06 0 -9.5048941287765091e-06 3.9412786556165409e-06 0 -9.3125488311631504e-06 2.3523479278515512e-06 0 -1.0859207705875545e-05 4.0342682255220415e-06 0 -3.4053838466964012e-05 4.2216382088733188e-05 0 -2.7063622743591237e-05 5.5576372588689696e-05 0 -3.9307130742824541e-05 6.1590131288301531e-05 0 -4.2123157343841098e-05 -1.9854389957271975e-05 0 -3.6752480967101985e-05 -1.8599990435659562e-05 0 -3.4461811687618202e-05 -1.5250681874735854e-05 0 -1.8136284369005408e-05 -6.6264208521913232e-06 0 -1.4763554144346745e-05 -3.9017820442833776e-06 0 -1.5338783832756955e-05 -4.3435460442364549e-06 0 8.4021254974852186e-06 0.00012216445757423297 0 9.1642181787385043e-06 0.00015510136319593754 0 -1.2135265557353505e-05 0.00014550332622848165 0 -0.00010035988509516995 -0.00010281886302000231 0 -8.4460222447547674e-05 -0.00010179516977665465 0 -8.7213615146813364e-05 -9.0513127783156159e-05 0 -9.1274180709729631e-05 4.1506532538008454e-05 0 -7.6323920953676351e-05 2.9788888052398179e-05 0 -7.1497174738978451e-05 2.9020486209739127e-05 0 -5.154226353346949e-05 -2.3689129389794533e-05 0 -5.9863399467921001e-05 -2.9832068153709481e-05 0 -4.9196317325333783e-05 -2.313428635610691e-05 0 -2.4559978085215216e-05 -1.8896310306869499e-06 0 -2.7465051043048808e-05 -1.3518783702741429e-06 0 -2.1276344100652924e-05 3.7156713662374351e-06 0 -1.6871967768786392e-05 1.1726029135963073e-06 0 -2.4672777138133105e-05 3.7536864115661696e-06 0 -2.2664166804472787e-05 3.3582244295769199e-06 0 -3.0625832620971287e-05 6.1725060002747211e-06 0 -2.2664166804472787e-05 3.3582244295769199e-06 0 -2.4672777138133105e-05 3.7536864115661696e-06 0 -1.2453732589381125e-05 1.0755621842635593e-05 0 -1.3137554013907554e-05 1.5394266051752513e-05 0 -1.3648272391736119e-05 1.3763072697704654e-05 0 -8.8382996976275402e-05 -0.00011848387193344843 0 -8.4460222447547674e-05 -0.00010179516977665465 0 -9.4189951316906166e-05 -0.00011060575772626078 0 -5.1432425034074747e-05 -3.7111582673734258e-05 0 -4.9721370108136305e-05 -3.718770522262753e-05 0 -4.8174292433106386e-05 -3.2338992526655401e-05 0 4.0442003347981218e-06 0.00025251829560805423 0 6.7388306659338216e-07 0.00028458943053450829 0 -1.8317128921240472e-05 0.00026962291826201646 0 -0.00010547819291323611 -0.00013401877221246199 0 -0.00010638325706531313 -0.00014903205269551552 0 -9.5696492006443006e-05 -0.00013935626244116763 0 -4.3921181033742923e-05 2.6907969346318507e-05 0 -3.2115762131576673e-05 1.7478016411517745e-05 0 -2.756386604154459e-05 2.0846390928815628e-05 0 -3.0015080571398887e-05 -2.089386171185729e-05 0 -3.4830268213095671e-05 -2.8184244463019167e-05 0 -2.9902706903887256e-05 -2.4036177425730078e-05 0 -3.7031098163783334e-05 -2.1717511063401375e-05 0 -3.5670368763171782e-05 -2.4374757716283395e-05 0 -3.055863448128064e-05 -1.8203141406681667e-05 0 -0.0001689725984927427 0.00026589564324268708 0 -0.00014196222791490912 0.00024598481721559178 0 -0.00014650014372206817 0.00027521082330784818 0 -3.0030091781242232e-05 -0.00012523908630482342 0 -3.9553851357488941e-05 -0.00011894213202776864 0 -4.0462173086634624e-05 -0.00013288792407622734 0 -1.7793189001507411e-05 -5.8359136996539468e-06 0 -1.4298745240830248e-05 -3.6051581223548875e-06 0 -1.7588767415736472e-05 -5.2856420827234278e-06 0 -1.8265031917487237e-05 2.0905307955006765e-05 0 -2.5962972668877075e-05 2.8050814101955863e-05 0 -2.756386604154459e-05 2.0846390928815628e-05 0 -4.2123157343841098e-05 -1.9854389957271975e-05 0 -3.6728090930112715e-05 -1.5649806420850577e-05 0 -4.2903950480556876e-05 -1.8796881765873639e-05 0 -4.6127240594104204e-05 -2.7128677802818448e-05 0 -5.1421863599644929e-05 -3.2896034297572064e-05 0 -4.6276958985155238e-05 -2.6924997059438845e-05 0 -1.9413925570758964e-05 -6.1043282437470596e-06 0 -1.8466071469839977e-05 -5.6609023235797402e-06 0 -2.3813045453380457e-05 -8.28868023956852e-06 0 -9.6095784243201488e-05 -8.7368077352255522e-05 0 -0.00010035988509516995 -0.00010281886302000231 0 -8.7213615146813364e-05 -9.0513127783156159e-05 0 -3.4698014701605634e-05 -1.3960424722559806e-05 0 -2.8193988083636767e-05 -1.054479646596088e-05 0 -2.9385880226446132e-05 -1.1396689761221678e-05 0 -2.3204527632115523e-05 -8.1929106166592503e-06 0 -2.9385880226446132e-05 -1.1396689761221678e-05 0 -2.8193988083636767e-05 -1.054479646596088e-05 0 -0.00011110879305223622 0.00016622780329615046 0 -8.9903818886440424e-05 0.00017110817076439509 0 -0.00011373370300283416 0.0001898969829130484 0 -3.0768138768884874e-06 -1.0076122181615236e-06 0 -6.4141373482072712e-06 -1.1171928295440175e-06 0 -3.3931637522862279e-06 -9.9654291932000423e-07 0 -7.3968407651949188e-06 -9.6375427954717528e-07 0 -3.3931637522862279e-06 -9.9654291932000423e-07 0 -6.4141373482072712e-06 -1.1171928295440175e-06 0 -6.6535778015288513e-06 -7.9084332204143975e-07 0 -6.6598073730525793e-06 -5.2083933750855924e-07 0 -3.1841270785160225e-06 -1.662334707767851e-08 0 -3.1405953755621697e-06 1.6046648521760926e-07 0 -3.1841270785160225e-06 -1.662334707767851e-08 0 -6.6598073730525793e-06 -5.2083933750855924e-07 0 -2.2906350346335195e-05 -1.1767510910474047e-05 0 -2.1967792152811321e-05 -1.0296292772163971e-05 0 -2.5892958870146856e-05 -1.5014698177625867e-05 0 -3.130023607641085e-05 -6.2992571061834216e-06 0 -3.3414341923082942e-05 -9.8143323817266762e-06 0 -3.4466382270566796e-05 -1.3897289165168822e-05 0 -3.6814693200922808e-05 -1.6001447699182707e-05 0 -3.4466382270566796e-05 -1.3897289165168822e-05 0 -3.3414341923082942e-05 -9.8143323817266762e-06 0 -5.1421863599644929e-05 -3.2896034297572064e-05 0 -5.5363198494251504e-05 -3.9239889412113703e-05 0 -5.1709036531883674e-05 -3.542126833181184e-05 0 -3.6814693200922808e-05 -1.6001447699182707e-05 0 -3.5965028872896484e-05 -1.3698071563578939e-05 0 -3.8658333100921664e-05 -1.806301447019086e-05 0 -3.2359231032247491e-05 -3.5597531079331213e-05 0 -2.8831761650819998e-05 -3.0430567892191356e-05 0 -3.4423561861132868e-05 -3.6302121234631416e-05 0 -5.6075372231295179e-05 -4.5057705348049349e-05 0 -5.2837048515924597e-05 -4.0484895717754973e-05 0 -5.4305135309166807e-05 -4.0400144667455979e-05 0 -5.9863399467921001e-05 -2.9832068153709481e-05 0 -6.8284290693137041e-05 -3.78403073560361e-05 0 -5.9152698111358752e-05 -3.2831673024473769e-05 0 -0.00010681666189850347 5.804345568201442e-05 0 -9.1274180709729631e-05 4.1506532538008454e-05 0 -8.8542994716571828e-05 4.7828310765722675e-05 0 -2.0912554129784836e-05 -9.2804112314243736e-06 0 -2.7828186399313538e-05 -1.577795138733209e-05 0 -2.2579496047667892e-05 -1.8862890828483317e-05 0 -3.2359231032247491e-05 -3.5597531079331213e-05 0 -3.6915572912707477e-05 -4.1159684937974986e-05 0 -3.5107616498711145e-05 -3.9796517437610713e-05 0 -3.7031098163783334e-05 -2.1717511063401375e-05 0 -3.6752480967101985e-05 -1.8599990435659562e-05 0 -4.4058502698136207e-05 -2.422906986433432e-05 0 -3.3476194404408495e-06 3.5893749075472008e-07 0 -1.37167546317043e-06 2.0608510700866168e-07 0 -1.5510559446782289e-06 2.5027002253402167e-07 0 -1.5770235690279254e-05 5.0024927122960209e-06 0 -2.0867075882598746e-05 7.1580342771810055e-06 0 -1.7472259709866458e-05 3.260430425577512e-06 0 -9.6547770013033329e-06 2.7050896350976586e-06 0 -1.2635964190925357e-05 2.8647004556222159e-06 0 -1.0142843717297373e-05 1.3591401989351379e-06 0 -2.3094783036099394e-05 8.6696043569220692e-06 0 -2.719678057315952e-05 1.3859777192014743e-06 0 -2.6856962794004195e-05 -3.080193914075421e-06 0 -1.796878743575833e-05 -6.5957490557601231e-06 0 -1.372101540243823e-05 -4.3655160866162885e-06 0 -1.313035759284579e-05 -5.3700595493379739e-06 0 -9.0733628058880572e-06 -2.8425616058859207e-06 0 -1.313035759284579e-05 -5.3700595493379739e-06 0 -1.372101540243823e-05 -4.3655160866162885e-06 0 -1.1563115077291074e-05 1.289975756752718e-06 0 -1.7611369232233877e-05 2.2740201525622927e-06 0 -1.7025812307787258e-05 4.1043619411151363e-06 0 -2.3582669593880467e-05 4.7381848902475782e-06 0 -1.7025812307787258e-05 4.1043619411151363e-06 0 -1.7611369232233877e-05 2.2740201525622927e-06 0 -8.3760931762903173e-05 -5.9348143881756785e-05 0 -9.0604005312625707e-05 -7.2823711213286009e-05 0 -7.8082324192769542e-05 -6.4077907604319584e-05 0 -4.3636762095548215e-05 8.7993071921029715e-05 0 -5.2948725152361459e-05 6.6170391848284924e-05 0 -3.9307130742824541e-05 6.1590131288301531e-05 0 -2.4483666939153873e-05 -7.8255693047944475e-05 0 -3.325800780073218e-05 -7.2330655874141842e-05 0 -3.6054152420648447e-05 -8.9375556673749662e-05 0 -4.3503310038304458e-05 -5.0316636513477645e-05 0 -4.6483755427877894e-05 -5.0518550808816811e-05 0 -4.6133642341043881e-05 -5.3869731795858051e-05 0 -1.3354682969081627e-05 -3.0443978395263576e-06 0 -1.7588767415736472e-05 -5.2856420827234278e-06 0 -1.4298745240830248e-05 -3.6051581223548875e-06 0 -2.6263342427636216e-05 -7.3461581560648924e-06 0 -2.1191798887912374e-05 -2.5745210198130735e-06 0 -2.2216937745278444e-05 -6.2752443016734854e-06 0 -2.9607850134570684e-05 -1.1575342599595969e-05 0 -2.3813045453380457e-05 -8.28868023956852e-06 0 -2.8193988083636767e-05 -1.054479646596088e-05 0 -3.4741581210327226e-05 0.00015716795081286613 0 -1.0828639821236342e-05 0.00016701135494080223 0 -2.4025781447017726e-05 0.00018669058340640835 0 -2.2903203096142277e-09 1.6683474915081183e-10 0 -2.4255710300850437e-06 3.4163319122953519e-07 0 -1.5510559446782289e-06 2.5027002253402167e-07 0 -4.728120050820708e-05 -3.7372598573653128e-05 0 -4.4749799650833059e-05 -3.766715503174725e-05 0 -4.3413531912533882e-05 -3.2237107398284889e-05 0 -2.0912554129784836e-05 -9.2804112314243736e-06 0 -2.0541529589928462e-05 9.6454673327045136e-06 0 -2.6856962794004195e-05 -3.080193914075421e-06 0 -0.00014655484697594849 0.00013438308258246877 0 -0.00013471861951940876 0.00010478415578265497 0 -0.00012069945579712353 0.00011590630035727093 0 -2.6524030427024029e-06 2.6035201079802967e-07 0 -3.1808422811856366e-06 1.7001666598913059e-07 0 -1.6993311116884327e-06 3.8628464416260554e-08 0 -6.6535778015288513e-06 -7.9084332204143975e-07 0 -3.1841270785160225e-06 -1.662334707767851e-08 0 -3.1291111902566196e-06 -2.4913896529229135e-07 0 -7.3968407651949188e-06 -9.6375427954717528e-07 0 -3.5961562040724238e-06 -7.3437421660764743e-07 0 -3.3931637522862279e-06 -9.9654291932000423e-07 0 -1.1735610403025145e-05 1.5352811886354878e-06 0 -9.7274186927292503e-06 9.245288969551459e-07 0 -1.1575087216275777e-05 -1.2253906397285517e-07 0 -5.3038521713525608e-05 -3.1564702153705578e-05 0 -5.1210935357599452e-05 -2.6465144464456905e-05 0 -5.9152698111358752e-05 -3.2831673024473769e-05 0 -7.5219732987179863e-05 4.6054507590681411e-05 0 -8.8542994716571828e-05 4.7828310765722675e-05 0 -7.4007423782761878e-05 3.5683648544815498e-05 0 -3.9687324163335675e-05 0.00026206813457340549 0 -2.6231664577055327e-05 0.00023162660588111535 0 -1.4885661232215713e-05 0.00024778961528595353 0 -8.4840650862630482e-05 -0.00013383445176682327 0 -8.8382996976275389e-05 -0.00011848387193344843 0 -9.5627297160801199e-05 -0.00012868392711827336 0 -1.968629552960131e-05 -1.9478068074368376e-05 0 -2.2579496047667892e-05 -1.8862890828483317e-05 0 -2.683406030686157e-05 -2.6128900474739351e-05 0 -2.3755860132351451e-05 1.2523149844092501e-05 0 -2.756386604154459e-05 2.0846390928815628e-05 0 -3.2115762131576673e-05 1.7478016411517745e-05 0 -2.8620189086793546e-05 -2.2896276550473936e-05 0 -2.683406030686157e-05 -2.6128900474739351e-05 0 -2.2579496047667892e-05 -1.8862890828483317e-05 0 -9.8077057973179761e-06 -1.5537290520342833e-07 0 -8.6703365484388671e-06 -2.4976059990259586e-07 0 -1.1645499331989513e-05 -1.2954867830467625e-06 0 -2.9071549285500317e-06 -5.008800803718834e-08 0 -2.0721991555517084e-06 -3.9900978640720695e-07 0 -1.3560824851064158e-06 -1.3735513633531064e-07 0 -1.7793189001507411e-05 -5.8359136996539468e-06 0 -1.5338783832756955e-05 -4.3435460442364549e-06 0 -1.4298745240830248e-05 -3.6051581223548875e-06 0 -2.3556401313767278e-05 5.6639203224193617e-06 0 -2.719678057315952e-05 1.3859777192014743e-06 0 -2.0381575894747262e-05 1.2390554197042229e-05 0 -2.3094783036099394e-05 8.6696043569220692e-06 0 -2.0381575894747262e-05 1.2390554197042229e-05 0 -2.719678057315952e-05 1.3859777192014743e-06 0 -7.4310061548971132e-05 -0.00010867575288660119 0 -8.8382996976275402e-05 -0.00011848387193344843 0 -7.7854996528715982e-05 -0.00012301106653985722 0 -8.4840650862630482e-05 -0.00013383445176682327 0 -7.7854996528715982e-05 -0.00012301106653985722 0 -8.8382996976275402e-05 -0.00011848387193344843 0 -4.8231576234097574e-05 0.00021124611288978089 0 -2.6231664577055327e-05 0.00023162660588111535 0 -5.0655786284001852e-05 0.00024251143139685676 0 -3.9687324163335675e-05 0.00026206813457340549 0 -5.0655786284001852e-05 0.00024251143139685676 0 -2.6231664577055327e-05 0.00023162660588111535 0 -4.8231576234097574e-05 0.00021124611288978089 0 -4.8739959859677271e-05 0.00018034808166311354 0 -2.4025781447017726e-05 0.00018669058340640835 0 -3.4741581210327226e-05 0.00015716795081286613 0 -2.4025781447017726e-05 0.00018669058340640835 0 -4.8739959859677271e-05 0.00018034808166311354 0 -2.0012945679901034e-09 1.277462545960848e-10 0 -2.0890336250783271e-09 1.372870403280514e-10 0 -1.37167546317043e-06 2.0608510700866168e-07 0 -2.3672286220583729e-05 -2.4614610346579164e-05 0 -2.683406030686157e-05 -2.6128900474739351e-05 0 -2.8831761650819998e-05 -3.0430567892191356e-05 0 -3.2050572271300531e-05 -3.2079580158768359e-05 0 -2.8831761650819998e-05 -3.0430567892191356e-05 0 -2.683406030686157e-05 -2.6128900474739351e-05 0 -7.6909013320947906e-05 -8.6452613181734627e-05 0 -8.0329566590637061e-05 -7.667850907689449e-05 0 -8.7213615146813364e-05 -9.0513127783156159e-05 0 -9.0604005312625707e-05 -7.2823711213286009e-05 0 -8.0329566590637061e-05 -7.667850907689449e-05 0 -7.8082324192769542e-05 -6.4077907604319584e-05 0 -0.00014655484697594849 0.00013438308258246877 0 -0.00012069945579712353 0.00011590630035727093 0 -0.00012278247065789776 0.00014456217848047908 0 -1.2717455685256232e-05 5.7436313203207769e-06 0 -1.3385274445823812e-05 8.3375122380599267e-06 0 -1.1215920681290675e-05 6.8158244769981804e-06 0 -1.2453732589381125e-05 1.0755621842635593e-05 0 -1.1215920681290675e-05 6.8158244769981804e-06 0 -1.3385274445823812e-05 8.3375122380599267e-06 0 -6.4695916756328245e-06 3.6179117771895907e-07 0 -7.9363150425835378e-06 4.6470892232979465e-07 0 -6.266761459489906e-06 6.6522911492034021e-07 0 -3.3476194404408495e-06 3.5893749075472008e-07 0 -1.5510559446782287e-06 2.5027002253402161e-07 0 -2.4255710300850437e-06 3.4163319122953519e-07 0 -3.0625832620971287e-05 6.1725060002747211e-06 0 -4.0500062170649666e-05 1.0286391290176331e-05 0 -3.2568253322508956e-05 7.9595215549882975e-06 0 -2.3204527632115523e-05 -8.1929106166592503e-06 0 -2.4235243183530958e-05 -9.4086473991267582e-06 0 -2.9385880226446132e-05 -1.1396689761221678e-05 0 -2.3204527632115523e-05 -8.1929106166592503e-06 0 -2.8193988083636767e-05 -1.054479646596088e-05 0 -2.3813045453380457e-05 -8.28868023956852e-06 0 6.5788046595716503e-06 0.00022048772262375386 0 -1.4885661232215713e-05 0.00024778961528595353 0 -2.6231664577055327e-05 0.00023162660588111535 0 -0.00010351308748749538 -0.00011842573150588728 0 -9.5627297160801213e-05 -0.00012868392711827336 0 -8.8382996976275402e-05 -0.00011848387193344843 0 -2.0185650814437209e-09 -3.5860689466007866e-11 0 -1.3560824851064158e-06 -1.3735513633531066e-07 0 -2.0721991555517084e-06 -3.9900978640720695e-07 0 -9.6547770013033329e-06 2.7050896350976586e-06 0 -1.2680728897762872e-05 5.1796242372293935e-06 0 -1.2635964190925357e-05 2.8647004556222159e-06 0 -5.8335882678421135e-05 -7.4783135892412508e-05 0 -6.2082339999007701e-05 -6.4264325838792654e-05 0 -6.7252072454251338e-05 -7.4909850780803471e-05 0 -2.4755304518476881e-05 6.4797945776726427e-06 0 -2.0867075882598743e-05 7.1580342771810046e-06 0 -2.840245012888738e-05 1.0914989325470358e-05 0 -3.0015080571398887e-05 -2.089386171185729e-05 0 -3.5670368763171782e-05 -2.4374757716283395e-05 0 -3.4830268213095671e-05 -2.8184244463019167e-05 0 -1.055860344438389e-05 5.6157981911765992e-06 0 -1.1215920681290675e-05 6.8158244769981804e-06 0 -1.1912858277137057e-05 8.8088578579784158e-06 0 -7.4776402852257579e-05 0.00013583044573614849 0 -9.7190424790198198e-05 0.00014111817372639902 0 -8.4958473946216903e-05 0.00011709122148004491 0 -5.3038521713525608e-05 -3.1564702153705578e-05 0 -6.3353119828260814e-05 -3.9320181353303614e-05 0 -5.5808432158403638e-05 -3.8675357352811213e-05 0 -7.5219732987179863e-05 4.6054507590681411e-05 0 -8.0538482681499079e-05 6.0310000582765834e-05 0 -9.5234840328902088e-05 6.2363972075098813e-05 0 -4.8515451309868477e-05 -5.4093156606512255e-05 0 -4.7326079391759023e-05 -5.7095325046838866e-05 0 -4.6133642341043881e-05 -5.3869731795858051e-05 0 -4.5288069853592831e-05 -5.5963194816084244e-05 0 -4.6133642341043881e-05 -5.3869731795858051e-05 0 -4.7326079391759023e-05 -5.7095325046838866e-05 0 -2.9607850134570684e-05 -1.1575342599595969e-05 0 -2.4382102510171299e-05 -8.8923608847636559e-06 0 -2.3813045453380457e-05 -8.28868023956852e-06 0 -1.9413925570758964e-05 -6.1043282437470596e-06 0 -2.3813045453380457e-05 -8.28868023956852e-06 0 -2.4382102510171299e-05 -8.8923608847636559e-06 0 -1.8136284369005408e-05 -6.6264208521913232e-06 0 -2.1967792152811321e-05 -1.0296292772163972e-05 0 -1.9973036550389302e-05 -8.3193638169520027e-06 0 -3.4698014701605634e-05 -1.3960424722559806e-05 0 -4.2903950480556876e-05 -1.8796881765873639e-05 0 -3.6728090930112715e-05 -1.5649806420850577e-05 0 -3.6384870060877826e-05 9.8219843762321533e-06 0 -3.686700223406011e-05 8.6360496976180166e-06 0 -2.8730907233551052e-05 6.1928724735555994e-06 0 -5.2042544498552543e-05 -5.9630932127392101e-05 0 -4.8401630884513765e-05 -5.9724605002124522e-05 0 -4.9693633896653464e-05 -5.7124127370124827e-05 0 -7.4776402852257579e-05 0.00013583044573614849 0 -8.9903818886440424e-05 0.00017110817076439509 0 -9.7190424790198198e-05 0.00014111817372639902 0 -2.0890336250783271e-09 1.372870403280514e-10 0 -2.2903203096142277e-09 1.6683474915081183e-10 0 -1.5510559446782289e-06 2.5027002253402167e-07 0 8.3260783807110551e-06 0.00018791986236132874 0 -2.4025781447017726e-05 0.00018669058340640835 0 -1.0828639821236342e-05 0.00016701135494080223 0 -1.4797798287966381e-05 1.7013399535117611e-05 0 -1.2748545580243535e-05 2.2109129965786205e-05 0 -1.3137554013907554e-05 1.539426605175251e-05 0 -7.5219732987179863e-05 4.6054507590681411e-05 0 -6.2557296536625392e-05 4.3641066227111297e-05 0 -8.0538482681499079e-05 6.0310000582765834e-05 0 -1.4797798287966381e-05 1.7013399535117611e-05 0 -1.4445530736206307e-05 1.2159940118009233e-05 0 -1.7868987524613029e-05 1.1574732335707591e-05 0 -1.4797798287966381e-05 1.7013399535117611e-05 0 -1.3137554013907554e-05 1.539426605175251e-05 0 -1.4445530736206307e-05 1.2159940118009233e-05 0 -2.2682809746827778e-05 -8.3399471781855047e-06 0 -2.804606551501387e-05 -1.1511373882634231e-05 0 -2.6476188203070101e-05 -1.1686999915617326e-05 0 -1.1714224926057546e-05 -2.2090944441964074e-06 0 -1.4298745240830248e-05 -3.6051581223548875e-06 0 -1.5338783832756955e-05 -4.3435460442364549e-06 0 -0.00010093662603697492 0.00011527677583319649 0 -0.00012278247065789776 0.00014456217848047908 0 -0.00012069945579712353 0.00011590630035727093 0 -2.8242308502116694e-05 -1.5644832450955534e-05 0 -3.0713969210489069e-05 -1.3491681526307621e-05 0 -2.6059464347587066e-05 -1.0745411119915929e-05 0 -2.3556401313767278e-05 5.6639203224193617e-06 0 -2.0381575894747262e-05 1.2390554197042229e-05 0 -1.7868987524613029e-05 1.1574732335707591e-05 0 -4.6153964336410831e-05 -3.2087213725783531e-05 0 -4.2865827213551513e-05 -2.713744006347373e-05 0 -4.4439167132048434e-05 -2.6537863859769224e-05 0 -5.3038521713525608e-05 -3.1564702153705578e-05 0 -5.9152698111358752e-05 -3.2831673024473769e-05 0 -6.3353119828260814e-05 -3.9320181353303614e-05 0 -7.5219732987179863e-05 4.6054507590681411e-05 0 -9.5234840328902088e-05 6.2363972075098813e-05 0 -8.8542994716571828e-05 4.7828310765722675e-05 0 -0.0001238975112515921 0.00026289716450187057 0 -0.00014650014372206817 0.00027521082330784818 0 -0.00014196222791490912 0.00024598481721559178 0 -4.87002983791307e-05 -0.00012902926963284959 0 -4.0462173086634624e-05 -0.00013288792407622734 0 -3.9553851357488941e-05 -0.00011894213202776864 0 -5.1432425034074747e-05 -3.7111582673734258e-05 0 -4.8174292433106386e-05 -3.2338992526655401e-05 0 -5.1709036531883674e-05 -3.542126833181184e-05 0 -1.2453732589381125e-05 1.0755621842635593e-05 0 -1.1912858277137057e-05 8.8088578579784158e-06 0 -1.1215920681290675e-05 6.8158244769981804e-06 0 -2.1542079376979603e-05 3.7287393792717881e-06 0 -2.8730907233551052e-05 6.1928724735555994e-06 0 -2.4672777138133105e-05 3.7536864115661696e-06 0 -4.2123157343841098e-05 -1.9854389957271975e-05 0 -3.4461811687618202e-05 -1.5250681874735854e-05 0 -3.6728090930112715e-05 -1.5649806420850577e-05 0 -5.9128977711652138e-05 2.4429875195586307e-05 0 -4.9382062423666512e-05 2.2078747038655817e-05 0 -6.0200257259204505e-05 3.2234096146594555e-05 0 -2.6549567782562986e-05 -1.7310588631727862e-05 0 -2.9902706903887256e-05 -2.4036177425730078e-05 0 -2.9136591099183655e-05 -2.1207511867905072e-05 0 -3.1284055844810127e-05 -1.4537830893772956e-05 0 -3.4461811687618202e-05 -1.5250681874735854e-05 0 -3.6752480967101985e-05 -1.8599990435659562e-05 0 -2.3556401313767278e-05 5.6639203224193617e-06 0 -2.1276344100652924e-05 3.7156713662374351e-06 0 -2.7465051043048808e-05 -1.3518783702741429e-06 0 -2.0185650814437209e-09 -3.5860689466007866e-11 0 -1.9848884733498819e-09 -1.0926123189881272e-10 0 -1.3560824851064158e-06 -1.3735513633531064e-07 0 -5.1844156440455351e-05 -4.2203778484415138e-05 0 -5.2837048515924597e-05 -4.0484895717754973e-05 0 -5.6075372231295179e-05 -4.5057705348049349e-05 0 -5.154226353346949e-05 -2.3689129389794533e-05 0 -4.9196317325333783e-05 -2.313428635610691e-05 0 -4.2903950480556876e-05 -1.8796881765873639e-05 0 -7.6323920953676351e-05 2.9788888052398179e-05 0 -6.0808501936123834e-05 2.1346642925814643e-05 0 -7.1497174738978451e-05 2.9020486209739127e-05 0 -6.914704565938569e-05 -6.3170759946730998e-05 0 -7.8082324192769542e-05 -6.4077907604319584e-05 0 -8.0329566590637061e-05 -7.667850907689449e-05 0 -4.0977423397102132e-05 -3.2678534747560863e-05 0 -4.0867457493464777e-05 -3.86922738136254e-05 0 -3.4830268213095671e-05 -2.8184244463019167e-05 0 -3.4278294221845258e-05 -3.2706568553640401e-05 0 -3.4830268213095671e-05 -2.8184244463019167e-05 0 -4.0867457493464777e-05 -3.86922738136254e-05 0 -3.1284055844810127e-05 -1.4537830893772956e-05 0 -3.1179397276911666e-05 -1.6136182608451851e-05 0 -2.6476188203070101e-05 -1.1686999915617326e-05 0 -4.6153964336410831e-05 -3.2087213725783531e-05 0 -4.4439167132048434e-05 -2.6537863859769224e-05 0 -4.8174292433106386e-05 -3.2338992526655401e-05 0 -7.6909013320947906e-05 -8.6452613181734627e-05 0 -6.7457207324327873e-05 -8.5008170662208442e-05 0 -6.7252072454251338e-05 -7.4909850780803471e-05 0 -3.1284055844810127e-05 -1.4537830893772956e-05 0 -2.6476188203070101e-05 -1.1686999915617326e-05 0 -2.804606551501387e-05 -1.1511373882634231e-05 0 -4.1311778732714656e-05 -2.248268564869301e-05 0 -4.4439167132048434e-05 -2.6537863859769224e-05 0 -4.2865827213551513e-05 -2.713744006347373e-05 0 -3.7673738562221163e-06 -5.6662866818178515e-07 0 -3.9606366269644676e-06 -1.6769369846303999e-07 0 -5.2127556976600962e-06 -1.1606381113894666e-07 0 -6.8284290693137041e-05 -3.78403073560361e-05 0 -6.3353119828260814e-05 -3.9320181353303614e-05 0 -5.9152698111358752e-05 -3.2831673024473769e-05 0 -0.00010681666189850347 5.804345568201442e-05 0 -8.8542994716571828e-05 4.7828310765722675e-05 0 -9.5234840328902088e-05 6.2363972075098813e-05 0 -0.00010351308748749538 -0.00011842573150588728 0 -8.8382996976275402e-05 -0.00011848387193344843 0 -9.4189951316906166e-05 -0.00011060575772626078 0 6.5788046595716503e-06 0.00022048772262375386 0 -2.6231664577055327e-05 0.00023162660588111535 0 -1.7110702077978518e-05 0.00020829772968896463 0 8.3260783807110551e-06 0.00018791986236132874 0 -1.7110702077978518e-05 0.00020829772968896463 0 -2.4025781447017726e-05 0.00018669058340640835 0 -0.00010351308748749538 -0.00011842573150588728 0 -0.00010547819291323609 -0.00013401877221246199 0 -9.5627297160801199e-05 -0.00012868392711827336 0 6.5788046595716503e-06 0.00022048772262375386 0 4.0442003347981218e-06 0.00025251829560805423 0 -1.4885661232215713e-05 0.00024778961528595353 0 -2.8620189086793546e-05 -2.2896276550473936e-05 0 -2.7828186399313538e-05 -1.577795138733209e-05 0 -3.2494928488951852e-05 -2.2262171957435061e-05 0 -4.802434292796751e-05 -3.0252422707936014e-05 0 -5.1709036531883674e-05 -3.542126833181184e-05 0 -4.8174292433106386e-05 -3.2338992526655401e-05 0 -6.3218060443400614e-05 -5.8223486817169165e-05 0 -6.453796033779401e-05 -6.1291440711960151e-05 0 -6.2036167067777188e-05 -5.6617576253519806e-05 0 -3.6970154775728455e-05 -4.0949152734506117e-05 0 -4.0426978647851826e-05 -4.7972581216818463e-05 0 -4.0049563213066404e-05 -4.4372411603190287e-05 0 -7.5219732987179863e-05 4.6054507590681411e-05 0 -6.0200257259204505e-05 3.2234096146594555e-05 0 -6.2557296536625392e-05 4.3641066227111297e-05 0 -1.9413925570758964e-05 -6.1043282437470596e-06 0 -1.5583975207133556e-05 -4.1415583364612602e-06 0 -1.8466071469839977e-05 -5.6609023235797402e-06 0 -7.361697032627446e-06 1.2339476323479469e-06 0 -7.9363150425835378e-06 4.6470892232979465e-07 0 -9.7274186927292503e-06 9.245288969551459e-07 0 -0.00011110879305223622 0.00016622780329615046 0 -9.7190424790198198e-05 0.00014111817372639902 0 -8.9903818886440424e-05 0.00017110817076439509 0 -4.3135686306137591e-05 -8.2340108599932826e-05 0 -3.6054152420648447e-05 -8.9375556673749662e-05 0 -3.325800780073218e-05 -7.2330655874141842e-05 0 -2.9071549285500317e-06 -5.008800803718834e-08 0 -1.3560824851064158e-06 -1.3735513633531064e-07 0 -1.6993311116884327e-06 3.8628464416260554e-08 0 -3.7031098163783334e-05 -2.1717511063401375e-05 0 -3.055863448128064e-05 -1.8203141406681667e-05 0 -3.1179397276911666e-05 -1.6136182608451851e-05 0 9.1642181787385043e-06 0.00015510136319593754 0 8.3260783807110585e-06 0.00018791986236132874 0 -1.0828639821236342e-05 0.00016701135494080223 0 -7.4481855491443404e-06 -6.4752278098350371e-07 0 -8.4060333647514952e-06 9.9816715758879315e-08 0 -1.0068683571994493e-05 -1.1070330996880641e-07 0 -2.8620189086793546e-05 -2.2896276550473936e-05 0 -3.2494928488951852e-05 -2.2262171957435061e-05 0 -3.200270126971028e-05 -2.8264236683940868e-05 0 -3.595944615515738e-05 -2.8834742319336231e-05 0 -3.200270126971028e-05 -2.8264236683940868e-05 0 -3.2494928488951852e-05 -2.2262171957435061e-05 0 -5.9034145480532119e-05 -5.4288858181725226e-05 0 -6.0173387034711735e-05 -5.309960247499993e-05 0 -6.2036167067777188e-05 -5.6617576253519806e-05 0 -6.3218060443400614e-05 -5.8223486817169165e-05 0 -6.2036167067777188e-05 -5.6617576253519806e-05 0 -6.0173387034711735e-05 -5.309960247499993e-05 0 -3.6970154775728455e-05 -4.0949152734506117e-05 0 -3.8895327581241029e-05 -4.5890246962611442e-05 0 -4.0426978647851826e-05 -4.7972581216818463e-05 0 -4.2088231950550639e-05 -5.1891070289165223e-05 0 -4.0426978647851826e-05 -4.7972581216818463e-05 0 -3.8895327581241029e-05 -4.5890246962611442e-05 0 -1.2717455685256232e-05 5.7436313203207769e-06 0 -1.0859207705875545e-05 4.0342682255220415e-06 0 -1.4205037776593535e-05 2.908474922610602e-06 0 -2.0912554129784836e-05 -9.2804112314243736e-06 0 -2.6856962794004195e-05 -3.080193914075421e-06 0 -2.7828186399313538e-05 -1.577795138733209e-05 0 -3.208805225755656e-05 -1.1909613308061334e-05 0 -2.7828186399313538e-05 -1.577795138733209e-05 0 -2.6856962794004195e-05 -3.080193914075421e-06 0 -7.6909013320947906e-05 -8.6452613181734627e-05 0 -8.7213615146813364e-05 -9.0513127783156159e-05 0 -8.4460222447547674e-05 -0.00010179516977665465 0 -2.9607850134570684e-05 -1.1575342599595969e-05 0 -3.4461811687618202e-05 -1.5250681874735854e-05 0 -2.804606551501387e-05 -1.1511373882634231e-05 0 -3.1284055844810127e-05 -1.4537830893772956e-05 0 -2.804606551501387e-05 -1.1511373882634231e-05 0 -3.4461811687618202e-05 -1.5250681874735854e-05 0 -3.0287261346430936e-05 -2.7422056478874829e-05 0 -3.9637793274687007e-05 -2.2993408853745518e-05 0 -3.7512435748389875e-05 -2.1153661538712067e-05 0 -5.7040658046951371e-05 -4.898363719737119e-05 0 -6.0173387034711735e-05 -5.309960247499993e-05 0 -5.6633735673222364e-05 -5.0761423379337676e-05 0 -3.8635052745269542e-05 -4.4615470658543449e-05 0 -4.1303990922660354e-05 -4.9026985068307741e-05 0 -3.8895327581241029e-05 -4.5890246962611442e-05 0 -9.8077057973179761e-06 -1.5537290520342833e-07 0 -9.7274186927292486e-06 9.245288969551459e-07 0 -7.9363150425835378e-06 4.6470892232979465e-07 0 -4.8401630884513765e-05 -5.9724605002124522e-05 0 -4.7326079391759023e-05 -5.7095325046838866e-05 0 -4.9693633896653464e-05 -5.7124127370124827e-05 0 -8.0466441990622096e-06 -3.81587162482793e-07 0 -6.0681307762173108e-06 2.1136189551696567e-07 0 -5.3065423881294596e-06 1.8807663198930818e-07 0 -4.1311778732714656e-05 -2.248268564869301e-05 0 -3.8658333100921664e-05 -1.806301447019086e-05 0 -4.0452122346834559e-05 -1.9496606639265051e-05 0 -2.9071549285500317e-06 -5.008800803718834e-08 0 -4.1958585151089897e-06 2.1792424950816057e-07 0 -3.9606366269644668e-06 -1.6769369846304005e-07 0 -7.3096552985673263e-05 0.00018603817947323995 0 -6.2245155959009593e-05 0.00016006313618885325 0 -4.8739959859677271e-05 0.00018034808166311354 0 -7.5916726886214925e-05 0.00024272446073497016 0 -5.0655786284001852e-05 0.00024251143139685676 0 -6.2205080463836919e-05 0.00026303766148838819 0 -6.7037837002039891e-05 -0.00012310020679287924 0 -7.7854996528715982e-05 -0.00012301106653985722 0 -7.4677853174010407e-05 -0.00013299720786194092 0 -7.1226949168964939e-06 3.3498346074890645e-05 0 -2.0541529589928462e-05 9.6454673327045136e-06 0 -9.4097985785315672e-06 -1.3635338304376078e-07 0 -2.9071549285500317e-06 -5.008800803718834e-08 0 -1.6993311116884327e-06 3.8628464416260554e-08 0 -3.1808422811856362e-06 1.7001666598913059e-07 0 -0.00010035988509516995 -0.00010281886302000231 0 -9.4189951316906153e-05 -0.00011060575772626078 0 -8.4460222447547674e-05 -0.00010179516977665465 0 -0.00010651895129952322 -0.0001896323639727511 0 -9.7902628399737369e-05 -0.00018235013470767531 0 -0.00010661851583867752 -0.00017676335538291163 0 -1.05366092373539e-05 0.00037103230536989683 0 -2.5434724600688574e-05 0.00036250770402955501 0 -6.8218478086621547e-06 0.00034490735165628198 0 -1.05366092373539e-05 0.00037103230536989683 0 -3.4870745301118276e-05 0.00037913361869695156 0 -2.5434724600688578e-05 0.00036250770402955501 0 -4.0367124614506453e-05 -0.00018089276577924426 0 -4.593841925575987e-05 -0.00017806749082487045 0 -4.9775694788426137e-05 -0.00018511796527479125 0 -0.00016999693799299226 0.00038806673475682435 0 -0.00017014932957025414 0.00035898335543732291 0 -0.00015053625864974954 0.00037159481651611996 0 -0.00010651895129952322 -0.0001896323639727511 0 -9.3660204780828899e-05 -0.00018951141182913737 0 -9.7902628399737369e-05 -0.00018235013470767531 0 -4.0367124614506453e-05 -0.00018089276577924426 0 -3.8179275122058498e-05 -0.00016971748923651938 0 -4.593841925575987e-05 -0.00017806749082487045 0 -0.00016999693799299226 0.00038806673475682435 0 -0.00015053625864974954 0.00037159481651611996 0 -0.00014090940324360058 0.00038788108676369353 0 -1.98488847335013e-09 -1.0926123189883789e-10 0 -1.6993311116884327e-06 3.8628464416260554e-08 0 -1.3560824851064158e-06 -1.3735513633531064e-07 0 -4.6153964336410831e-05 -3.2087213725783531e-05 0 -4.3413531912533882e-05 -3.2237107398284889e-05 0 -4.2865827213551513e-05 -2.713744006347373e-05 0 -3.1284055844810127e-05 -1.4537830893772956e-05 0 -3.6752480967101985e-05 -1.8599990435659562e-05 0 -3.1179397276911666e-05 -1.6136182608451851e-05 0 -7.6909013320947906e-05 -8.6452613181734627e-05 0 -7.2581952771921866e-05 -9.5093736983815059e-05 0 -6.7457207324327873e-05 -8.5008170662208442e-05 0 -7.2538937099620948e-06 5.4112842928326454e-07 0 -1.0142843717297373e-05 1.3591401989351379e-06 0 -8.4060333647514952e-06 9.9816715758879315e-08 0 -8.1745676057103824e-05 0.00028182149131920529 0 -0.00010222993227947509 0.00030119342246949391 0 -0.00010251088441317339 0.00027219390749528384 0 -6.7565896926899554e-05 -0.00014089060064773943 0 -6.041757297326172e-05 -0.00014919266251672817 0 -5.8243256710291938e-05 -0.00013556373015713948 0 -6.0251603982649555e-05 -5.0289061799802145e-05 0 -6.190803524842899e-05 -5.4591829723141105e-05 0 -5.9212101365952106e-05 -5.0140731006800649e-05 0 -3.0762495102043416e-05 -3.3149610702438629e-05 0 -3.5107616498711145e-05 -3.9796517437610713e-05 0 -3.4026129881928416e-05 -3.7226768659516847e-05 0 -1.478361804961665e-05 -1.2338652664491975e-05 0 -2.2579496047667892e-05 -1.8862890828483317e-05 0 -1.968629552960131e-05 -1.9478068074368376e-05 0 -3.7031098163783334e-05 -2.1717511063401375e-05 0 -3.1179397276911666e-05 -1.6136182608451851e-05 0 -3.6752480967101985e-05 -1.8599990435659562e-05 0 -5.5363198494251504e-05 -3.9239889412113703e-05 0 -5.8181145415656754e-05 -4.5080434594975399e-05 0 -5.4305135309166807e-05 -4.0400144667455979e-05 0 -2.3672286220583729e-05 -2.4614610346579164e-05 0 -2.8831761650819998e-05 -3.0430567892191356e-05 0 -2.7434083143177146e-05 -2.9058222094768664e-05 0 -5.8335882678421135e-05 -7.4783135892412508e-05 0 -5.1053975826554097e-05 -7.8919532075714062e-05 0 -4.9624802171577377e-05 -6.4639941839429908e-05 0 -7.361697032627446e-06 1.2339476323479469e-06 0 -6.266761459489906e-06 6.652291149203401e-07 0 -7.9363150425835378e-06 4.6470892232979465e-07 0 -4.87002983791307e-05 -0.00012902926963284959 0 -5.6256690577952588e-05 -0.00012019686796968769 0 -5.8243256710291938e-05 -0.00013556373015713948 0 -0.0001238975112515921 0.00026289716450187057 0 -0.00010078504022191285 0.00024345837790053384 0 -0.00010251088441317339 0.00027219390749528384 0 -3.2050572271300531e-05 -3.2079580158768359e-05 0 -2.683406030686157e-05 -2.6128900474739351e-05 0 -3.200270126971028e-05 -2.8264236683940868e-05 0 -2.8620189086793546e-05 -2.2896276550473936e-05 0 -3.200270126971028e-05 -2.8264236683940864e-05 0 -2.683406030686157e-05 -2.6128900474739351e-05 0 -1.1714224926057546e-05 -2.2090944441964074e-06 0 -1.0899698236806114e-05 -1.8939724615932108e-06 0 -1.4298745240830248e-05 -3.6051581223548875e-06 0 -4.0977423397102132e-05 -3.2678534747560863e-05 0 -3.4830268213095671e-05 -2.8184244463019164e-05 0 -3.5670368763171782e-05 -2.4374757716283395e-05 0 -4.003626332561232e-05 -6.4108251460779394e-05 0 -3.1390961122671233e-05 -5.7161627413844772e-05 0 -3.5860493588830167e-05 -4.5540011330417284e-05 0 -4.0773791187373813e-05 -2.6900219865280455e-05 0 -4.2865827213551513e-05 -2.713744006347373e-05 0 -4.3413531912533882e-05 -3.2237107398284889e-05 0 -2.533357598761308e-05 -4.7603531385636256e-05 0 -3.1390961122671233e-05 -5.7161627413844772e-05 0 -2.3937205493577766e-05 -6.2829991434532485e-05 0 -3.2359231032247491e-05 -3.5597531079331213e-05 0 -3.4423561861132868e-05 -3.6302121234631416e-05 0 -3.6915572912707477e-05 -4.1159684937974986e-05 0 -3.8445839646196194e-05 -4.020139711043769e-05 0 -3.6915572912707477e-05 -4.1159684937974986e-05 0 -3.4423561861132868e-05 -3.6302121234631416e-05 0 -1.3815181255453637e-05 -3.6525845951572327e-06 0 -1.7727820639070066e-05 -5.7312360644304831e-06 0 -1.8466071469839977e-05 -5.6609023235797402e-06 0 -2.2564424281822596e-05 -8.8219900825216942e-06 0 -2.6059464347587066e-05 -1.0745411119915929e-05 0 -2.2216937745278444e-05 -6.2752443016734854e-06 0 -2.6263342427636216e-05 -7.3461581560648924e-06 0 -2.2216937745278444e-05 -6.2752443016734854e-06 0 -2.6059464347587066e-05 -1.0745411119915929e-05 0 -1.4797798287966381e-05 1.7013399535117611e-05 0 -2.0381575894747262e-05 1.2390554197042229e-05 0 -1.5642385641872013e-05 2.1960211643929104e-05 0 -2.3094783036099394e-05 8.6696043569220692e-06 0 -1.5642385641872013e-05 2.1960211643929104e-05 0 -2.0381575894747262e-05 1.2390554197042229e-05 0 8.3260783807110551e-06 0.00018791986236132874 0 6.5788046595716503e-06 0.00022048772262375386 0 -1.7110702077978518e-05 0.00020829772968896463 0 -1.7346236650932089e-05 8.7706023032001894e-06 0 -1.3385274445823812e-05 8.3375122380599267e-06 0 -1.5785230614021801e-05 5.8217637082023976e-06 0 -0.00010035988509516995 -0.00010281886302000231 0 -0.00010351308748749538 -0.00011842573150588728 0 -9.4189951316906166e-05 -0.00011060575772626078 0 -1.3354682969081627e-05 -3.0443978395263576e-06 0 -1.4298745240830248e-05 -3.6051581223548875e-06 0 -1.0899698236806114e-05 -1.8939724615932108e-06 0 -1.6871967768786392e-05 1.1726029135963073e-06 0 -1.2986779410866948e-05 5.5608273840723165e-07 0 -1.1325483161153453e-05 -2.456192041315849e-07 0 -1.3815181255453637e-05 -3.6525845951572327e-06 0 -9.5803410320504418e-06 -1.9356380500692592e-06 0 -1.0491955796735342e-05 -2.6584129807479516e-06 0 -9.6547770013033329e-06 2.7050896350976586e-06 0 -7.4514917664474855e-06 1.722633800934815e-06 0 -9.1406220762151576e-06 3.6480144289482956e-06 0 -8.0159007694249415e-06 -4.6868861797775245e-06 0 -6.3953890336794002e-06 -2.6821333380858787e-06 0 -3.3106061160308107e-06 -1.6095938846880534e-06 0 -4.7821376894999168e-09 3.1064875540989994e-10 0 -3.3106061160308107e-06 -1.6095938846880532e-06 0 -6.3953890336794002e-06 -2.6821333380858787e-06 0 -9.7766253367344217e-06 4.6900292563215619e-06 0 -4.1144632920225645e-06 1.4323698590680585e-06 0 -8.2066781124267428e-06 1.9730065880146894e-06 0 -6.242033763555068e-09 -7.4893479561303304e-10 0 -8.2066781124267428e-06 1.9730065880146894e-06 0 -4.1144632920225645e-06 1.4323698590680585e-06 0 -4.0977423397102132e-05 -3.2678534747560863e-05 0 -4.8629441374020725e-05 -3.753499233552742e-05 0 -4.7362698303221004e-05 -4.3447300634722038e-05 0 -2.9071549285500317e-06 -5.008800803718834e-08 0 -3.1808422811856362e-06 1.7001666598913059e-07 0 -4.1958585151089897e-06 2.1792424950816057e-07 0 -3.4741581210327226e-05 0.00015716795081286613 0 -1.2135265557353507e-05 0.00014550332622848165 0 -1.0828639821236342e-05 0.00016701135494080223 0 -3.4053838466964012e-05 4.2216382088733188e-05 0 -3.6434956532596969e-05 3.1845102038756789e-05 0 -2.5962972668877075e-05 2.8050814101955863e-05 0 -1.7346236650932089e-05 8.7706023032001894e-06 0 -1.4445530736206307e-05 1.2159940118009233e-05 0 -1.3385274445823812e-05 8.3375122380599267e-06 0 -4.42929580732173e-05 -5.1239195201851491e-05 0 -4.0867457493464777e-05 -3.86922738136254e-05 0 -4.7362698303221004e-05 -4.3447300634722038e-05 0 -0.00011250638436450012 0.0003870878742228259 0 -0.00014090940324360058 0.00038788108676369353 0 -0.0001264732571953506 0.00037293576744569469 0 -5.9414146912241565e-05 -0.0001873141864927373 0 -4.9775694788426137e-05 -0.00018511796527479125 0 -5.4248212221400168e-05 -0.00018087273012240565 0 -3.4870745301118276e-05 0.00037913361869695156 0 -5.9520312750659144e-05 0.00038354474520014707 0 -4.6483607348373466e-05 0.00036832936226478927 0 -9.3660204780828899e-05 -0.00018951141182913737 0 -8.1300628959735555e-05 -0.00018904439670675463 0 -8.7323491851633807e-05 -0.00018291579034912029 0 -5.343956705632563e-05 -4.9768070216134592e-05 0 -5.6633735673222364e-05 -5.0761423379337676e-05 0 -5.4998636706153388e-05 -5.2679733633549352e-05 0 -4.3503310038304458e-05 -5.0316636513477645e-05 0 -4.3681528805478272e-05 -5.3511850895369765e-05 0 -4.1303990922660354e-05 -4.9026985068307741e-05 0 -9.5252251964260089e-09 -4.0768479925898036e-09 0 -3.3106061160308115e-06 -1.6095938846880538e-06 0 -4.7821376894999168e-09 3.1064875540989994e-10 0 -1.1050569248289637e-08 4.7180580138450297e-09 0 -6.242033763555068e-09 -7.4893479561303304e-10 0 -4.1144632920225645e-06 1.4323698590680585e-06 0 -1.1050569248289637e-08 4.7180580138450297e-09 0 -4.1144632920225645e-06 1.4323698590680585e-06 0 -9.7766253367344217e-06 4.6900292563215619e-06 0 -9.5252251964260089e-09 -4.0768479925898036e-09 0 -8.0159007694249415e-06 -4.6868861797775245e-06 0 -3.3106061160308107e-06 -1.6095938846880534e-06 0 -4.3135686306137591e-05 -8.2340108599932826e-05 0 -5.105397582655409e-05 -7.8919532075714049e-05 0 -5.2828921464344941e-05 -9.4076307707075516e-05 0 -1.7793189001507411e-05 -5.8359136996539468e-06 0 -2.1555516426487077e-05 -8.2872212951591608e-06 0 -1.990638301671467e-05 -7.7867950684058178e-06 0 -4.1311778732714656e-05 -2.248268564869301e-05 0 -4.2865827213551507e-05 -2.713744006347373e-05 0 -3.9733587070702172e-05 -2.1972304306606398e-05 0 -4.0773791187373813e-05 -2.6900219865280455e-05 0 -3.9733587070702172e-05 -2.1972304306606398e-05 0 -4.2865827213551513e-05 -2.713744006347373e-05 0 -1.1714224926057546e-05 -2.2090944441964074e-06 0 -1.5338783832756955e-05 -4.3435460442364549e-06 0 -1.2953610423048938e-05 -2.832363711945694e-06 0 -6.4695916756328245e-06 3.6179117771895907e-07 0 -6.0681307762173108e-06 2.1136189551696567e-07 0 -8.6703365484388671e-06 -2.4976059990259586e-07 0 -8.0466441990622096e-06 -3.81587162482793e-07 0 -8.6703365484388671e-06 -2.4976059990259586e-07 0 -6.0681307762173108e-06 2.1136189551696567e-07 0 -2.3094783036099394e-05 8.6696043569220692e-06 0 -2.0541529589928462e-05 9.6454673327045136e-06 0 -1.5642385641872013e-05 2.1960211643929104e-05 0 -7.1226949168964939e-06 3.3498346074890645e-05 0 -1.5642385641872013e-05 2.1960211643929107e-05 0 -2.0541529589928462e-05 9.6454673327045136e-06 0 -5.4664403554502814e-05 -4.43301315347726e-05 0 -4.7362698303221004e-05 -4.3447300634722038e-05 0 -4.8629441374020725e-05 -3.753499233552742e-05 0 -3.2050572271300531e-05 -3.2079580158768359e-05 0 -3.4423561861132868e-05 -3.6302121234631416e-05 0 -2.8831761650819998e-05 -3.0430567892191356e-05 0 -5.1432425034074747e-05 -3.7111582673734258e-05 0 -5.4305135309166807e-05 -4.0400144667455979e-05 0 -5.2837048515924597e-05 -4.0484895717754973e-05 0 -9.8077057973179761e-06 -1.5537290520342833e-07 0 -1.1575087216275777e-05 -1.2253906397285517e-07 0 -9.7274186927292503e-06 9.245288969551459e-07 0 -3.9687324163335675e-05 0.00026206813457340549 0 -1.4885661232215713e-05 0.00024778961528595353 0 -1.8317128921240472e-05 0.00026962291826201646 0 -8.4840650862630482e-05 -0.00013383445176682327 0 -9.5627297160801199e-05 -0.00012868392711827336 0 -9.5696492006443006e-05 -0.00013935626244116763 0 -3.0287261346430936e-05 -2.7422056478874829e-05 0 -2.9136591099183655e-05 -2.1207511867905072e-05 0 -2.9902706903887256e-05 -2.4036177425730078e-05 0 -2.8620189086793546e-05 -2.2896276550473936e-05 0 -2.2579496047667892e-05 -1.8862890828483317e-05 0 -2.7828186399313538e-05 -1.577795138733209e-05 0 -0.0001238975112515921 0.00026289716450187057 0 -0.00014196222791490912 0.00024598481721559178 0 -0.00012008554604347782 0.00023614996059415262 0 -4.87002983791307e-05 -0.00012902926963284959 0 -3.9553851357488941e-05 -0.00011894213202776864 0 -4.7512930292682774e-05 -0.00011597623145806707 0 -4.3135686306137591e-05 -8.2340108599932826e-05 0 -4.5020548340274858e-05 -9.546343690993067e-05 0 -3.6054152420648447e-05 -8.9375556673749662e-05 0 -5.1346105682233119e-05 -4.6069064913895327e-05 0 -5.074426637475577e-05 -4.8479498749330736e-05 0 -4.8395559548539413e-05 -4.5447917286543903e-05 0 -3.8635052745269542e-05 -4.4615470658543449e-05 0 -3.5107616498711145e-05 -3.9796517437610713e-05 0 -3.6915572912707477e-05 -4.1159684937974986e-05 0 -1.5770235690279254e-05 5.0024927122960209e-06 0 -1.2635964190925357e-05 2.8647004556222159e-06 0 -1.2680728897762872e-05 5.1796242372293927e-06 0 -4.8515451309868477e-05 -5.4093156606512255e-05 0 -4.6133642341043881e-05 -5.3869731795858051e-05 0 -4.6483755427877894e-05 -5.0518550808816811e-05 0 -1.3354682969081627e-05 -3.0443978395263576e-06 0 -1.0899698236806114e-05 -1.8939724615932108e-06 0 -1.0340487011221867e-05 -1.7374221416630752e-06 0 -8.1872802234878396e-06 -8.7629282243366624e-07 0 -1.0340487011221867e-05 -1.7374221416630752e-06 0 -1.0899698236806114e-05 -1.8939724615932108e-06 0 -1.7737947429533335e-05 -2.713136781936114e-06 0 -1.9662020504699032e-05 -5.7356677939623492e-06 0 -2.2216937745278444e-05 -6.2752443016734854e-06 0 -4.0977423397102132e-05 -3.2678534747560863e-05 0 -4.7362698303221004e-05 -4.3447300634722038e-05 0 -4.0867457493464777e-05 -3.86922738136254e-05 0 -1.1714224926057546e-05 -2.2090944441964074e-06 0 -1.2953610423048938e-05 -2.832363711945694e-06 0 -9.9124767483529225e-06 -1.2910901632445986e-06 0 -1.1548541803029662e-05 -1.8558200634966342e-06 0 -9.9124767483529225e-06 -1.2910901632445986e-06 0 -1.2953610423048938e-05 -2.832363711945694e-06 0 -1.5338783832756955e-05 -4.3435460442364549e-06 0 -1.4763554144346745e-05 -3.9017820442833776e-06 0 -1.2953610423048938e-05 -2.832363711945694e-06 0 -5.2658163058078327e-05 -5.4916823883125725e-05 0 -5.4998636706153388e-05 -5.2679733633549352e-05 0 -5.680952463808679e-05 -5.6275169933495239e-05 0 -5.9034145480532119e-05 -5.4288858181725226e-05 0 -5.6809524638086783e-05 -5.6275169933495239e-05 0 -5.4998636706153388e-05 -5.2679733633549352e-05 0 -4.2088231950550639e-05 -5.1891070289165223e-05 0 -4.3681528805478272e-05 -5.3511850895369765e-05 0 -4.413308528503248e-05 -5.6578343663353146e-05 0 -4.5288069853592831e-05 -5.5963194816084244e-05 0 -4.413308528503248e-05 -5.6578343663353146e-05 0 -4.3681528805478272e-05 -5.3511850895369765e-05 0 -2.3094783036099394e-05 8.6696043569220692e-06 0 -2.6856962794004195e-05 -3.080193914075421e-06 0 -2.0541529589928462e-05 9.6454673327045136e-06 0 -3.5917379373186073e-05 0.00034978175141346191 0 -4.6483607348373466e-05 0.00036832936226478927 0 -6.0861001924484686e-05 0.00035893486163162747 0 -9.1982639578649198e-05 -0.00017513765594403711 0 -8.7323491851633807e-05 -0.00018291579034912029 0 -8.0120276521561751e-05 -0.00017769423136950602 0 -4.9923503896861611e-05 -0.00017261718107672316 0 -5.9887180265436812e-05 -0.00017689931324758803 0 -5.4248212221400168e-05 -0.00018087273012240565 0 -0.00013723237302310361 0.00035538835561055033 0 -0.00010985080854159383 0.00036104399237270866 0 -0.0001264732571953506 0.00037293576744569469 0 -0.0001238975112515921 0.00026289716450187057 0 -0.00012008554604347781 0.00023614996059415262 0 -0.00010078504022191285 0.00024345837790053384 0 -4.87002983791307e-05 -0.00012902926963284959 0 -4.7512930292682774e-05 -0.00011597623145806707 0 -5.6256690577952588e-05 -0.00012019686796968769 0 -4.3135686306137591e-05 -8.2340108599932826e-05 0 -5.2828921464344941e-05 -9.4076307707075516e-05 0 -4.5020548340274858e-05 -9.546343690993067e-05 0 -2.2564424281822596e-05 -8.8219900825216942e-06 0 -2.2216937745278444e-05 -6.2752443016734854e-06 0 -1.9662020504699032e-05 -5.7356677939623492e-06 0 -5.9520312750659144e-05 0.00038354474520014707 0 -6.0861001924484686e-05 0.00035893486163162747 0 -4.6483607348373466e-05 0.00036832936226478927 0 -8.1300628959735555e-05 -0.00018904439670675463 0 -8.0120276521561751e-05 -0.00017769423136950602 0 -8.7323491851633807e-05 -0.00018291579034912029 0 -0.00011250638436450012 0.0003870878742228259 0 -0.0001264732571953506 0.00037293576744569469 0 -0.00010985080854159383 0.00036104399237270866 0 -5.9414146912241565e-05 -0.0001873141864927373 0 -5.4248212221400168e-05 -0.00018087273012240565 0 -5.9887180265436812e-05 -0.00017689931324758803 0 -4.8378692970406958e-05 -4.8444657023572137e-05 0 -4.8395559548539413e-05 -4.5447917286543903e-05 0 -5.074426637475577e-05 -4.8479498749330736e-05 0 -2.533357598761308e-05 -4.7603531385636256e-05 0 -3.5860493588830167e-05 -4.5540011330417284e-05 0 -3.1390961122671233e-05 -5.7161627413844772e-05 0 -6.453796033779401e-05 -6.1291440711960151e-05 0 -6.2132095367862337e-05 -5.8038763960615311e-05 0 -6.2036167067777188e-05 -5.6617576253519806e-05 0 -4.0049563213066404e-05 -4.4372411603190287e-05 0 -4.0426978647851826e-05 -4.7972581216818463e-05 0 -4.263357704931798e-05 -5.2002985580843623e-05 0 -6.4695916756328245e-06 3.6179117771895907e-07 0 -4.599524368185214e-06 3.7071939382957882e-07 0 -6.0681307762173108e-06 2.1136189551696567e-07 0 -0.0001330027151733059 0.00021475729888407631 0 -0.00013445282145692447 0.00018444999371018466 0 -0.00011373370300283416 0.0001898969829130484 0 -0.00011110879305223622 0.00016622780329615046 0 -0.00011373370300283416 0.0001898969829130484 0 -0.00013445282145692447 0.00018444999371018466 0 -4.5542344902045528e-05 -4.1944608142164302e-05 0 -4.8567726791464242e-05 -4.2169494512024749e-05 0 -4.8395559548539413e-05 -4.5447917286543903e-05 0 -1.4789505795222537e-05 -3.3014623386012905e-06 0 -1.4763554144346745e-05 -3.9017820442833776e-06 0 -1.7083572602695072e-05 -5.5495003218106738e-06 0 -4.1311778732714656e-05 -2.248268564869301e-05 0 -3.9733587070702172e-05 -2.1972304306606398e-05 0 -3.8658333100921664e-05 -1.806301447019086e-05 0 -3.6814693200922808e-05 -1.6001447699182707e-05 0 -3.8658333100921664e-05 -1.806301447019086e-05 0 -3.9733587070702172e-05 -2.1972304306606398e-05 0 -0.00010123166957489872 0.00021349640320827507 0 -0.00010078504022191285 0.00024345837790053384 0 -0.00012008554604347782 0.00023614996059415262 0 -5.2504194617652991e-05 -0.00010648458176436767 0 -5.6256690577952588e-05 -0.00012019686796968769 0 -4.7512930292682774e-05 -0.00011597623145806707 0 -5.2504194617652991e-05 -0.00010648458176436767 0 -4.5020548340274858e-05 -9.546343690993067e-05 0 -5.2828921464344941e-05 -9.4076307707075516e-05 0 -9.0733628058880572e-06 -2.8425616058859207e-06 0 -1.3721015402438232e-05 -4.3655160866162885e-06 0 -1.0491955796735342e-05 -2.6584129807479516e-06 0 -1.1563115077291074e-05 1.289975756752718e-06 0 -1.2986779410866948e-05 5.5608273840723165e-07 0 -1.7611369232233877e-05 2.2740201525622927e-06 0 -2.3582669593880467e-05 4.7381848902475782e-06 0 -1.7611369232233877e-05 2.2740201525622927e-06 0 -2.2664166804472787e-05 3.3582244295769199e-06 0 -1.796878743575833e-05 -6.5957490557601231e-06 0 -1.7727820639070066e-05 -5.7312360644304831e-06 0 -1.372101540243823e-05 -4.3655160866162885e-06 0 -1.918949407336087e-05 -6.8124798319519157e-06 0 -1.9662020504699032e-05 -5.7356677939623492e-06 0 -1.6948576835861084e-05 -4.0188006220195524e-06 0 -0.0001330027151733059 0.00021475729888407631 0 -0.00012008554604347782 0.00023614996059415262 0 -0.00014196222791490912 0.00024598481721559178 0 -4.0102813488171007e-05 -0.00010459331622984162 0 -4.7512930292682774e-05 -0.00011597623145806707 0 -3.9553851357488941e-05 -0.00011894213202776864 0 -4.0102813488171007e-05 -0.00010459331622984162 0 -3.6054152420648447e-05 -8.9375556673749662e-05 0 -4.5020548340274858e-05 -9.546343690993067e-05 0 -5.8335882678421135e-05 -7.4783135892412508e-05 0 -6.7252072454251338e-05 -7.4909850780803471e-05 0 -6.7457207324327873e-05 -8.5008170662208442e-05 0 -5.1346105682233119e-05 -4.6069064913895327e-05 0 -4.8395559548539413e-05 -4.5447917286543903e-05 0 -4.8567726791464242e-05 -4.2169494512024749e-05 0 -1.5770235690279254e-05 5.0024927122960209e-06 0 -1.7242733648293092e-05 8.3024644058827202e-06 0 -2.0867075882598746e-05 7.1580342771810055e-06 0 -2.2906350346335195e-05 -1.1767510910474047e-05 0 -1.9973036550389302e-05 -8.3193638169520027e-06 0 -2.1967792152811321e-05 -1.0296292772163972e-05 0 -1.3815181255453637e-05 -3.6525845951572327e-06 0 -1.846607146983998e-05 -5.6609023235797394e-06 0 -1.5583975207133556e-05 -4.1415583364612602e-06 0 -0.00010093662603697492 0.00011527677583319649 0 -8.4958473946216903e-05 0.00011709122148004491 0 -9.7190424790198198e-05 0.00014111817372639902 0 -6.914704565938569e-05 -6.3170759946730998e-05 0 -6.7252072454251338e-05 -7.4909850780803471e-05 0 -6.2082339999007701e-05 -6.4264325838792654e-05 0 -3.9687324163335675e-05 0.00026206813457340549 0 -6.2205080463836919e-05 0.00026303766148838819 0 -5.0655786284001852e-05 0.00024251143139685676 0 -8.4840650862630482e-05 -0.00013383445176682327 0 -7.4677853174010407e-05 -0.00013299720786194092 0 -7.7854996528715982e-05 -0.00012301106653985722 0 -3.4741581210327226e-05 0.00015716795081286613 0 -4.8739959859677271e-05 0.00018034808166311354 0 -6.2245155959009593e-05 0.00016006313618885325 0 -2.2682809746827778e-05 -8.3399471781855047e-06 0 -2.4382102510171299e-05 -8.8923608847636542e-06 0 -2.804606551501387e-05 -1.1511373882634231e-05 0 -1.8136284369005408e-05 -6.6264208521913232e-06 0 -1.7083572602695072e-05 -5.5495003218106738e-06 0 -1.4763554144346745e-05 -3.9017820442833776e-06 0 -6.262216700656969e-05 -9.4249674481313898e-05 0 -6.7457207324327873e-05 -8.5008170662208442e-05 0 -7.2581952771921866e-05 -9.5093736983815059e-05 0 -5.9034145480532119e-05 -5.4288858181725226e-05 0 -6.2036167067777188e-05 -5.6617576253519806e-05 0 -6.2132095367862337e-05 -5.8038763960615311e-05 0 -4.2088231950550639e-05 -5.1891070289165223e-05 0 -4.2633577049317973e-05 -5.2002985580843623e-05 0 -4.0426978647851826e-05 -4.7972581216818463e-05 0 -1.1548541803029662e-05 -1.8558200634966342e-06 0 -1.2953610423048938e-05 -2.832363711945694e-06 0 -1.4763554144346745e-05 -3.9017820442833776e-06 0 -0.00014090940324360058 0.00038788108676369353 0 -0.00015053625864974954 0.00037159481651611996 0 -0.0001264732571953506 0.00037293576744569469 0 -0.00013723237302310361 0.00035538835561055033 0 -0.0001264732571953506 0.00037293576744569469 0 -0.00015053625864974954 0.00037159481651611996 0 -4.9923503896861611e-05 -0.00017261718107672316 0 -5.4248212221400168e-05 -0.00018087273012240565 0 -4.593841925575987e-05 -0.00017806749082487045 0 -4.9775694788426137e-05 -0.00018511796527479125 0 -4.593841925575987e-05 -0.00017806749082487045 0 -5.4248212221400168e-05 -0.00018087273012240565 0 -3.4870745301118276e-05 0.00037913361869695156 0 -4.6483607348373466e-05 0.00036832936226478927 0 -2.5434724600688578e-05 0.00036250770402955501 0 -9.3660204780828899e-05 -0.00018951141182913737 0 -8.7323491851633807e-05 -0.00018291579034912029 0 -9.7902628399737369e-05 -0.00018235013470767531 0 -3.5917379373186073e-05 0.00034978175141346191 0 -2.5434724600688578e-05 0.00036250770402955501 0 -4.6483607348373466e-05 0.00036832936226478927 0 -9.1982639578649198e-05 -0.00017513765594403711 0 -9.7902628399737369e-05 -0.00018235013470767531 0 -8.7323491851633807e-05 -0.00018291579034912029 0 -4.5542344902045528e-05 -4.1944608142164302e-05 0 -4.8395559548539413e-05 -4.5447917286543903e-05 0 -4.5760395961541762e-05 -4.5540536239722122e-05 0 -5.1844156440455351e-05 -4.2203778484415138e-05 0 -4.9721370108136305e-05 -3.718770522262753e-05 0 -5.2837048515924597e-05 -4.0484895717754973e-05 0 -5.1432425034074747e-05 -3.7111582673734258e-05 0 -5.2837048515924597e-05 -4.0484895717754973e-05 0 -4.9721370108136305e-05 -3.718770522262753e-05 0 -4.8378692970406958e-05 -4.8444657023572137e-05 0 -5.074426637475577e-05 -4.8479498749330736e-05 0 -5.0841460524445154e-05 -5.1379970065553829e-05 0 -5.343956705632563e-05 -4.9768070216134592e-05 0 -5.0841460524445154e-05 -5.1379970065553829e-05 0 -5.074426637475577e-05 -4.8479498749330736e-05 0 -1.4797798287966381e-05 1.7013399535117611e-05 0 -1.7868987524613029e-05 1.1574732335707591e-05 0 -2.0381575894747262e-05 1.2390554197042229e-05 0 -2.3755860132351451e-05 1.2523149844092501e-05 0 -3.2115762131576673e-05 1.7478016411517745e-05 0 -2.840245012888738e-05 1.0914989325470358e-05 0 -3.765213505410837e-05 1.5644546711663267e-05 0 -2.840245012888738e-05 1.0914989325470358e-05 0 -3.2115762131576673e-05 1.7478016411517745e-05 0 -2.2682809746827778e-05 -8.3399471781855047e-06 0 -2.6476188203070101e-05 -1.1686999915617326e-05 0 -2.1555516426487077e-05 -8.2872212951591608e-06 0 -0.00010093662603697492 0.00011527677583319649 0 -8.3916201081951072e-05 9.6185035283819054e-05 0 -8.4958473946216903e-05 0.00011709122148004491 0 -6.7619890677561616e-05 9.9389151133060392e-05 0 -8.4958473946216903e-05 0.00011709122148004491 0 -8.3916201081951072e-05 9.6185035283819054e-05 0 -1.7346236650932089e-05 8.7706023032001894e-06 0 -1.7868987524613029e-05 1.1574732335707591e-05 0 -1.4445530736206307e-05 1.2159940118009233e-05 0 -3.8445839646196194e-05 -4.020139711043769e-05 0 -4.0335602130950771e-05 -4.4827198568004355e-05 0 -3.6915572912707477e-05 -4.1159684937974986e-05 0 -3.8635052745269542e-05 -4.4615470658543449e-05 0 -3.6915572912707477e-05 -4.1159684937974986e-05 0 -4.0335602130950771e-05 -4.4827198568004355e-05 0 -1.2453732589381125e-05 1.0755621842635593e-05 0 -1.4445530736206307e-05 1.2159940118009233e-05 0 -1.3137554013907554e-05 1.539426605175251e-05 0 -5.3862782071757934e-05 -5.6185899235910769e-05 0 -6.1016107554703167e-05 -5.4923060481717639e-05 0 -6.2082339999007701e-05 -6.4264325838792654e-05 0 -6.914704565938569e-05 -6.3170759946730998e-05 0 -6.2082339999007701e-05 -6.4264325838792654e-05 0 -6.1016107554703167e-05 -5.4923060481717639e-05 0 -1.2717455685256232e-05 5.7436313203207769e-06 0 -1.5785230614021801e-05 5.8217637082023976e-06 0 -1.3385274445823812e-05 8.3375122380599267e-06 0 -1.2453732589381125e-05 1.0755621842635593e-05 0 -1.3385274445823812e-05 8.3375122380599267e-06 0 -1.4445530736206307e-05 1.2159940118009233e-05 0 -5.1432425034074747e-05 -3.7111582673734258e-05 0 -5.1709036531883674e-05 -3.542126833181184e-05 0 -5.4305135309166807e-05 -4.0400144667455979e-05 0 -1.8136284369005408e-05 -6.6264208521913232e-06 0 -1.9973036550389302e-05 -8.3193638169520027e-06 0 -1.7083572602695072e-05 -5.5495003218106738e-06 0 -1.918949407336087e-05 -6.8124798319519157e-06 0 -1.7083572602695072e-05 -5.5495003218106738e-06 0 -1.9973036550389302e-05 -8.3193638169520027e-06 0 -1.7737947429533335e-05 -2.713136781936114e-06 0 -1.6948576835861084e-05 -4.0188006220195524e-06 0 -1.9662020504699032e-05 -5.7356677939623492e-06 0 4.0442003347981218e-06 0.00025251829560805423 0 -1.8317128921240472e-05 0.00026962291826201646 0 -1.4885661232215713e-05 0.00024778961528595353 0 -0.00010547819291323611 -0.00013401877221246199 0 -9.5696492006443006e-05 -0.00013935626244116763 0 -9.5627297160801199e-05 -0.00012868392711827336 0 -2.9607850134570684e-05 -1.1575342599595969e-05 0 -2.804606551501387e-05 -1.1511373882634231e-05 0 -2.4382102510171299e-05 -8.8923608847636559e-06 0 -2.0890336250783271e-09 1.372870403280514e-10 0 -1.5510559446782292e-06 2.5027002253402167e-07 0 -1.37167546317043e-06 2.0608510700866168e-07 0 9.1642181787385043e-06 0.00015510136319593754 0 -1.0828639821236342e-05 0.00016701135494080223 0 -1.2135265557353505e-05 0.00014550332622848165 0 -4.8378692970406958e-05 -4.8444657023572137e-05 0 -4.5760395961541762e-05 -4.5540536239722122e-05 0 -4.8395559548539413e-05 -4.5447917286543903e-05 0 -2.4755304518476881e-05 6.4797945776726427e-06 0 -2.840245012888738e-05 1.0914989325470358e-05 0 -3.3281058064368365e-05 1.0438432832444852e-05 0 -3.765213505410837e-05 1.5644546711663267e-05 0 -3.3281058064368365e-05 1.0438432832444852e-05 0 -2.840245012888738e-05 1.0914989325470358e-05 0 -5.5363198494251504e-05 -3.9239889412113703e-05 0 -5.4305135309166807e-05 -4.0400144667455979e-05 0 -5.1709036531883674e-05 -3.542126833181184e-05 0 
</DataArray>
</PointData>
<CellData Scalars="region_id,cross_section_updated,displacement_divergence," Vectors="" Tensors="stress,">
<DataArray type="Float64" Name="region_id" format="ascii">
2 2 2 2 2 2 2 2 2 2 3 3 3 3 3 3 3 3 3 3 1 1 1 1 1 1 1 1 1 1 1 1 1 1 1 1 1 1 1 1 1 1 1 1 1 1 1 1 1 1 1 1 1 1 1 1 1 1 1 1 1 1 1 1 1 1 1 1 1 1 1 1 1 1 1 1 1 1 1 1 1 1 1 1 1 1 1 1 1 1 1 1 1 1 1 1 1 1 1 1 1 1 1 1 1 1 1 1 1 1 1 1 1 1 1 1 1 1 1 1 1 1 1 1 1 1 1 1 1 1 1 1 1 1 1 1 1 1 1 1 1 1 1 1 1 1 1 1 1 1 1 1 1 1 1 1 1 1 1 1 1 1 1 1 1 1 1 1 1 1 1 1 1 1 1 1 1 1 1 1 1 1 1 1 1 1 1 1 1 1 1 1 1 1 1 1 1 1 1 1 1 1 1 1 1 1 1 1 1 1 1 1 1 1 1 1 1 1 1 1 1 1 1 1 1 1 1 1 1 1 1 1 1 1 1 1 1 1 1 1 1 1 1 1 1 1 1 1 1 1 1 1 1 1 1 1 1 1 1 1 1 1 1 1 1 1 1 1 1 1 1 1 1 1 1 1 1 1 1 1 1 1 1 1 1 1 1 1 1 1 1 1 1 1 1 1 1 1 1 1 1 1 1 1 1 1 1 1 1 1 1 1 1 1 1 1 1 1 1 1 1 1 1 1 1 1 1 1 1 1 1 1 1 1 1 1 1 1 1 1 1 1 1 1 1 1 1 1 1 1 1 1 1 1 1 1 1 1 1 1 1 1 1 1 1 1 1 1 1 1 1 1 1 1 1 1 1 1 1 1 1 1 1 1 1 1 1 1 1 1 1 1 1 1 1 1 1 1 1 1 1 1 1 1 1 1 1 1 1 1 1 1 1 1 1 1 1 1 1 1 1 1 1 1 1 1 1 1 1 1 1 1 1 1 1 1 1 1 1 1 1 1 1 1 1 1 1 1 1 1 1 1 1 1 1 1 1 1 1 1 1 1 1 1 1 1 1 1 1 1 1 1 1 1 1 1 1 1 1 1 1 1 1 1 1 1 1 1 1 1 1 1 1 1 1 1 1 1 1 1 1 1 1 1 1 1 1 1 1 1 1 1 1 1 1 1 1 1 1 1 1 1 1 1 1 1 1 1 1 1 1 1 1 1 1 1 1 1 1 1 1 1 1 1 1 1 1 1 1 1 1 1 1 1 1 1 1 1 1 1 1 1 1 1 1 1 1 1 1 1 1 1 1 1 1 1 1 1 1 1 1 1 1 1 1 1 1 1 1 1 1 1 1 1 1 1 1 1 1 1 1 1 1 1 1 1 1 1 1 1 1 1 1 1 1 1 1 1 1 1 1 1 1 1 1 1 1 1 1 1 1 1 1 1 1 1 1 1 1 1 1 1 1 1 1 1 1 1 1 1 1 1 1 1 1 1 1 1 1 1 1 1 1 1 1 1 1 1 1 1 1 1 1 1 1 1 1 1 1 1 1 1 1 1 1 1 1 1 1 1 1 1 1 1 1 1 1 1 1 1 1 1 1 1 1 1 1 1 1 1 1 1 1 1 1 1 1 1 1 1 1 1 1 1 1 1 1 1 1 1 1 1 1 1 1 1 1 1 1 1 1 1 1 1 1 1 1 1 1 1 1 1 1 1 1 1 1 1 1 1 1 1 1 1 1 1 1 1 1 1 1 1 1 1 1 1 1 1 1 1 1 1 1 1 1 1 1 1 1 1 1 1 1 1 1 1 1 1 1 1 1 1 1 1 1 1 1 1 1 1 1 1 1 1 1 1 1 1 1 1 1 1 1 1 1 1 1 1 1 1 1 1 1 1 1 1 1 1 1 1 1 1 1 1 1 1 1 1 1 1 1 1 1 1 1 1 1 1 1 1 1 1 1 1 1 1 1 1 1 1 1 1 1 1 1 1 1 1 1 1 1 1 1 1 1 1 1 1 1 1 1 1 1 1 1 1 1 1 1 1 1 1 1 1 1 1 1 1 1 1 1 1 1 1 1 1 1 1 1 1 1 1 1 1 1 1 1 1 1 1 1 1 1 1 1 1 1 1 1 1 1 1 1 1 1 1 1 1 1 1 1 1 1 1 1 1 1 1 1 1 1 1 1 1 1 1 1 1 1 1 1 1 1 1 1 1 1 1 1 1 1 1 1 1 1 1 1 1 1 1 1 1 1 1 1 1 1 1 1 1 1 1 1 1 1 1 1 1 1 1 1 1 1 1 1 1 1 1 1 1 1 1 1 1 1 1 1 1 1 1 1 1 1 1 1 1 1 1 1 1 1 1 1 1 1 1 1 1 1 1 1 1 1 1 
</DataArray>
<DataArray type="Float64" Name="stress" NumberOfComponents="9" format="ascii">
0.0048661386386552909 -0.0029278995943275918 0 -0.0029278995943275918 0.014747444896560163 0 0 0 0.0049033958838038622 0.011998028445538819 -0.0073738610049604554 0 -0.0073738610049604554 0.036165442102435483 0 0 0 0.012040867636993576 0.016141489313974206 -0.0099111436253528484 0 -0.0099111436253528484 0.048613015041770839 0 0 0 0.016188626088936262 0.019919374850033086 -0.011375637585680231 0 -0.011375637585680231 0.059931099479608931 0 0 0 0.01996261858241051 0.023740197037715582 -0.012077658568248703 0 -0.012077658568248703 0.071372674261420646 0 0 0 0.023778217824784051 0.027821109931865567 -0.012218895193917036 0 -0.012218895193917036 0.083606835099416021 0 0 0 0.027856986257820397 0.032206421343571733 -0.011944437049651551 0 -0.011944437049651551 0.09676208254499595 0 0 0 0.032242125972141926 0.036626665285774754 -0.011440919614845091 0 -0.011440919614845091 0.11002377219663036 0 0 0 0.036662609370601278 0.041061089265249415 -0.010881600126708206 0 -0.010881600126708206 0.12327587704175948 0 0 0 0.041084241576752223 0.044923173187739217 -0.010397059346149802 0 -0.010397059346149802 0.13504612330192833 0 0 0 0.044992324122416896 0.0086711419898276593 0.0016171169733722865 0 0.0016171169733722865 0.025730865586731582 0 0 0 0.0086005018941398108 0.021968077055768621 0.0038724906396646551 0 0.0038724906396646551 0.066030673339038545 0 0 0 0.021999687598701793 0.030853754335299178 0.0053206653959267242 0 0.0053206653959267242 0.092706595847507942 0 0 0 0.030890087545701782 0.038647841273657189 0.0061902326695389472 0 0.0061902326695389472 0.11611298815207607 0 0 0 0.038690207356433318 0.046137154361961343 0.0067152967984941258 0 0.0067152967984941258 0.1386004961010352 0 0 0 0.04618441261574914 0.053443523414075378 0.0069949699443460607 0 0.0069949699443460607 0.16053820141242922 0 0 0 0.05349543120662615 0.060670159542665948 0.0070579760046859154 0 0.0070579760046859154 0.18221914798209346 0 0 0 0.06072232688118985 0.067615300446286553 0.0069819039152514148 0 0.0069819039152514148 0.20315694346451826 0 0 0 0.067693060977701211 0.074501108112342063 0.0068105548242761924 0 0.0068105548242761924 0.22344249643732264 0 0 0 0.074485901137416197 0.080254777798099197 0.006648822016913347 0 0.006648822016913347 0.24215152009832494 0 0 0 0.080601574474106041 -0.071666017974706953 -0.020803571420456753 0 -0.020803571420456753 0.030297668899386121 0 0 0 -0.010342087268830208 -0.066386613753707205 -0.021354000074458656 0 -0.021354000074458656 0.051646943404684731 0 0 0 -0.0036849175872556011 -0.086227822685250172 -0.013478020195086232 0 -0.013478020195086232 0.044936561010326281 0 0 0 -0.01032281541873098 -0.090021514087977844 -0.0012341467245834958 0 -0.0012341467245834958 0.046150683062115561 0 0 0 -0.010967707756465522 -0.18507812133761836 -0.0049511241115230697 0 -0.0049511241115230697 0.0018102046514186232 0 0 0 -0.045816979171549907 -0.1414311958964343 -0.0016047941319183127 0 -0.0016047941319183127 -0.00076906279777036023 0 0 0 -0.035550064673551166 -0.19375248847546964 -0.0019674011057648835 0 -0.0019674011057648835 -0.0017061595843999005 0 0 0 -0.048864662014967371 -0.14657173935267351 -0.0029011487095647586 0 -0.0029011487095647586 -0.001056565029911985 0 0 0 -0.036907076095646363 -0.15995386061350594 0.0034399269891766115 0 0.0034399269891766115 -0.00049335933593264159 0 0 0 -0.040111804987359626 -0.2648254828857976 -0.011622171349155171 0 -0.011622171349155171 -0.00048649311919507499 0 0 0 -0.066327994001248183 -0.039716378606783856 0.0031466199699640195 0 0.0031466199699640195 -0.018751401942045807 0 0 0 -0.01461694513720743 -0.044500400188549838 0.0046147375946446771 0 0.0046147375946446771 -0.013102969344731014 0 0 0 -0.014400842383320206 -0.075388919382933281 -0.00064389490753503703 0 -0.00064389490753503703 -0.01175007171038306 0 0 0 -0.021784747773329078 -0.074204145501893942 -0.0081089264935641833 0 -0.0081089264935641833 -0.024738814781562264 0 0 0 -0.024735740070864053 -0.075743608157370579 0.0012930017693756652 0 0.0012930017693756652 -0.025247684967859806 0 0 0 -0.025247823281307594 -0.082015379350849016 -0.021963759341463718 0 -0.021963759341463718 0.030210741414076731 0 0 0 -0.012951159484193009 0.15868012691319294 0.12984488234525809 0 0.12984488234525809 0.28173656073108744 0 0 0 0.11010417191107008 -0.00078015850580404056 -0.012569222722074169 0 -0.012569222722074169 0.0097538100444598541 0 0 0 0.0022434128846640089 -0.0025305184440163053 0.00577840512014971 0 0.00577840512014971 0.01813517176902657 0 0 0 0.0039011633312524552 0.0013888440567737526 0.01505605819895529 0 0.01505605819895529 0.02989325927118891 0 0 0 0.0078205258319909987 -0.0012474618359503697 -0.0056557321407848648 0 -0.0056557321407848648 0.0083519000536966814 0 0 0 0.0017761095544364114 -0.015006324220713907 0.022963974230802542 0 0.022963974230802542 0.011017503456149935 0 0 0 -0.000997205191141326 -0.011285791285266855 -0.026221538195705163 0 -0.026221538195705163 0.0080713848105433694 0 0 0 -0.00080360161868076041 -0.069703829773032744 0.0028173011361482744 0 0.0028173011361482744 -0.012924354432989634 0 0 0 -0.020657046051505586 0.17348422825657833 -0.0083097856571780898 0 -0.0083097856571780898 0.17754133057302168 0 0 0 0.08775638970739999 -0.27557501222630748 0.019077604145912419 0 0.019077604145912419 0.0086261016192981099 0 0 0 -0.066737227651752495 -0.15551858350698514 -0.0078831019349700649 0 -0.0078831019349700649 0.0034149098883879958 0 0 0 -0.03802591840464925 -0.13115844347804823 -0.027503592942749219 0 -0.027503592942749219 0.021849298008557394 0 0 0 -0.027327286367372722 -0.14114802107914159 0.034589031622395169 0 0.034589031622395169 0.0821818952626725 0 0 0 -0.014741531454117274 -0.15936611731394312 -0.02179193671994363 0 -0.02179193671994363 0.015519807396478486 0 0 0 -0.03596157747936618 -0.074877415852118656 -0.02970266289551373 0 -0.02970266289551373 0.060654843039384676 0 0 0 -0.0035556432031834811 -0.034485270269650981 -0.037605555251352785 0 -0.037605555251352785 0.0088077726318583904 0 0 0 -0.0064193744094482863 -0.038776868404896137 0.046880849425554372 0 0.046880849425554372 0.0084654212876469348 0 0 0 -0.0075778617793120784 -0.037140812327952633 -0.03825736564284532 0 -0.03825736564284532 0.01293520213135757 0 0 0 -0.00605140254914871 -0.047509947227538429 0.050323294560251419 0 0.050323294560251419 0.0030763594994187571 0 0 0 -0.011108396932029585 -0.12536432088403171 -0.031726959518751832 0 -0.031726959518751832 0.0067735154651227814 0 0 0 -0.029647701354727343 -0.044125249877572097 -0.056949097795138889 0 -0.056949097795138889 0.084923741942787706 0 0 0 0.010199623016303914 -0.16214621979592034 0.020794296459027695 0 0.020794296459027695 0.02259344489758075 0 0 0 -0.034888193724584765 0.30062170723861248 0.15630573392059047 0 0.15630573392059047 0.094564158058899839 0 0 0 0.098796466324378107 -0.002931075774393499 0.0081876484340359101 0 0.0081876484340359101 0.032709533987878681 0 0 0 0.0074446145533713648 -0.006508445914999994 -0.0086402785527662784 0 -0.0086402785527662784 0.081562483443898603 0 0 0 0.018763509382224597 -0.066285417234372521 -0.030334516068071249 0 -0.030334516068071249 0.10236050674351817 0 0 0 0.0090187723772864412 -0.005658290865635518 -0.024052906533355678 0 -0.024052906533355678 0.084590974270787989 0 0 0 0.019733170851288229 -0.0084048124784037448 0.0039901117335814362 0 0.0039901117335814362 -0.0026062137349871506 0 0 0 -0.0027527565533471687 -0.057493313380984387 -0.007412000036808343 0 -0.007412000036808343 -0.02534767231490381 0 0 0 -0.020710246423972054 -0.06207629793706991 0.0048109926494942831 0 0.0048109926494942831 -0.019793047037839434 0 0 0 -0.020467336243727336 -0.093663094678575545 0.086216672107542469 0 0.086216672107542469 0.084680946206771801 0 0 0 -0.0022455371179509048 -0.087186574786386847 0.078361840441185437 0 0.078361840441185437 0.059385401882380451 0 0 0 -0.0069502932260015332 0.13341760502496017 0.18252245349065943 0 0.18252245349065943 0.32261011790541377 0 0 0 0.11400693073259352 -0.013680442524944048 0.0079413181657224108 0 0.0079413181657224108 0.0012793130396325791 0 0 0 -0.0031002823713276451 -0.023755498472258892 -0.024965472402988187 0 -0.024965472402988187 0.070586894079188583 0 0 0 0.011707848901732369 -0.029290216069711494 -0.012282739398222442 0 -0.012282739398222442 -0.004636776289193012 0 0 0 -0.0084817480897261821 -0.069698562195642577 -0.02784033592142551 0 -0.02784033592142551 0.076809060205335039 0 0 0 0.0017776245024231224 -0.053439312446685122 -0.035370978890093434 0 -0.035370978890093434 0.0050376376520467336 0 0 0 -0.012100418698659549 -0.036007717344385237 -0.0075766702801439711 0 -0.0075766702801439711 0.029389651845996179 0 0 0 -0.0016545163745972924 -0.13316575334475533 0.023059708601841145 0 0.023059708601841145 -0.0004919702026713324 0 0 0 -0.033414430886856583 -0.011221308486179415 -0.005881200187761837 0 -0.005881200187761837 0.00054951060910468641 0 0 0 -0.0026679494692687378 -0.016564630722565088 0.025247309251461125 0 0.025247309251461125 0.13483931293010354 0 0 0 0.029568670551884502 -0.025208377215939614 -0.020525126461728105 0 -0.020525126461728105 0.096477235976185918 0 0 0 0.017817214690061801 0.0021898952123455828 0.0005320524580814226 0 0.0005320524580814226 -0.0013294266413019784 0 0 0 0.00021511714276067906 -0.030368281571379663 -0.0006812797381336444 0 -0.0006812797381336444 0.0076292907619726069 0 0 0 -0.0056847477023517778 0.0036192621098765088 -0.081833026031161105 0 -0.081833026031161105 0.13296274746677506 0 0 0 0.034145502394162808 -0.028401167059073196 -0.0020780757277351486 0 -0.0020780757277351486 0.0056851061552729565 0 0 0 -0.0056790152259501014 -0.040099409824325805 -0.012072504237420505 0 -0.012072504237420505 0.0086810425478404118 0 0 0 -0.0078545918191212927 -0.056054451617707501 -0.044770392273497134 0 -0.044770392273497134 0.012405617667808233 0 0 0 -0.010912208487474873 -0.13556146914321432 -0.013178978749146893 0 -0.013178978749146893 -0.023209972119876309 0 0 0 -0.039692860315772661 -0.17323976796414478 0.005083525015659297 0 0.005083525015659297 -0.027851948228814385 0 0 0 -0.050272929048239788 0.0028187698949693352 0.0045473101325430587 0 0.0045473101325430587 0.019782867815526173 0 0 0 0.0056504094276239748 0.005253046714835008 -0.0057482726511466353 0 -0.0057482726511466353 0.067900842015782503 0 0 0 0.018288472182654392 -0.12913212877995792 -0.008719734768713721 0 -0.008719734768713721 -0.031883665133310174 0 0 0 -0.04025394847831703 -0.10655780220842895 -0.0032880013296939588 0 -0.0032880013296939588 -0.025779543907993033 0 0 0 -0.033084336529105494 -0.049575942871692306 -7.9134852347107518e-05 0 -7.9134852347107518e-05 -0.022782585755317771 0 0 0 -0.018089632156752529 -0.14091666907841652 0.0022515129327405625 0 0.0022515129327405625 -0.00075140699631229095 0 0 0 -0.03541701901868221 -0.18871388375864157 -0.011169353964634744 0 -0.011169353964634744 0.0013962160050290107 0 0 0 -0.046829416938403097 -0.043746562687070667 -0.024579957815309181 0 -0.024579957815309181 -0.0076261685179298544 0 0 0 -0.01284318280125013 -0.048488665631007566 -0.032528465333943685 0 -0.032528465333943685 0.0060013478863620295 0 0 0 -0.010621829436161412 0.0028642175446740858 0.024487941722401985 0 0.024487941722401985 0.16079397853300637 0 0 0 0.040914549019420099 -0.0074328987881326081 -0.0034389131525747185 0 -0.0034389131525747185 -0.00230960781256484 0 0 0 -0.0024356266501745216 -0.045873100182087789 -0.026853302580454388 0 -0.026853302580454388 -0.010330347572350296 0 0 0 -0.014050861938609494 -0.033300166750448723 -0.013305811005895729 0 -0.013305811005895729 0.0082743862872882989 0 0 0 -0.0062564451157900436 -0.075143479245136646 0.069660673129160078 0 0.069660673129160078 0.00060163554579073519 0 0 0 -0.018635460924836478 -0.15172826914677554 0.0014679119880979387 0 0.0014679119880979387 -0.050603515217583765 0 0 0 -0.05058294609108982 -0.12029808795240568 -0.010361507060872294 0 -0.010361507060872294 -0.040123101350041504 0 0 0 -0.040105297325611799 -0.058265121911541304 -0.0069034251427387118 0 -0.0069034251427387118 -0.024300822067986384 0 0 0 -0.020641485994881921 -0.011965227724036742 0.031277681769068533 0 0.031277681769068533 0.024136231115133633 0 0 0 0.0030427508477737231 -0.01361792704144249 -0.019067004976114577 0 -0.019067004976114577 0.0043777400966571456 0 0 0 -0.0023100467361962806 -0.043411401022869868 -0.04201316335410954 0 -0.04201316335410954 0.010589419708265269 0 0 0 -0.0082054953286512036 -0.044573407918763824 0.0027445640839833551 0 0.0027445640839833551 -0.017988358872463108 0 0 0 -0.015640441697806727 -0.10029093585186065 -0.018274472840601436 0 -0.018274472840601436 -0.0091845563988651735 0 0 0 -0.027368873062681452 -0.041904342569032194 -0.011804060336222656 0 -0.011804060336222656 0.009250651378287067 0 0 0 -0.0081634227976863372 -0.041504160781300398 0.0053150916925109879 0 0.0053150916925109879 -0.016302341439598304 0 0 0 -0.014451625555224669 -0.045846623997384782 0.0045555729429980702 0 0.0045555729429980702 -0.014487705812383784 0 0 0 -0.015083582452442143 -0.048773361490656038 0.0028798380500430439 0 0.0028798380500430439 -0.017881225564367761 0 0 0 -0.016663646763755952 -0.034352326010314072 -0.0053894353927430028 0 -0.0053894353927430028 0.023588233592890751 0 0 0 -0.0026910231043557054 -0.044980468626674069 -0.043643694766623706 0 -0.043643694766623706 0.032222121576686025 0 0 0 -0.0031895867624969487 -0.029311323661945887 -0.01145358082823153 0 -0.01145358082823153 0.010672007992533539 0 0 0 -0.0046598289173531149 -0.0692617184807897 -0.032865565034426635 0 -0.032865565034426635 0.10124130146252336 0 0 0 0.0079948957454334373 -0.022392875512823096 0.020232065340115124 0 0.020232065340115124 0.17737823777663309 0 0 0 0.038746340565952053 0.00081413312952038908 -0.00068204428323848077 0 -0.00068204428323848077 -0.00094251177546400555 0 0 0 -3.2094661485793097e-05 -0.007371773825282979 -0.0061866744364150791 0 -0.0061866744364150791 -0.0036738488165415362 0 0 0 -0.0027614056604559067 -0.018873340539613537 0.01712299185831645 0 0.01712299185831645 0.17854989008241162 0 0 0 0.039919137385699521 -0.051549993853215355 0.0221878321373849 0 0.0221878321373849 0.14025105522682171 0 0 0 0.022175265343401591 -0.05847213898296591 0.0029915073385836282 0 0.0029915073385836282 -0.011401114890187263 0 0 0 -0.017468313468288282 -0.06332357574027983 0.0017792989649351473 0 0.0017792989649351473 -0.013522986385774715 0 0 0 -0.019211640531513637 -0.0004235944729624741 0.039588822812215763 0 0.039588822812215763 0.057633556059328406 0 0 0 0.014302490396591594 -0.028488359344395864 0.042548700316972221 0 0.042548700316972221 0.048280444520885091 0 0 0 0.0049480212941224178 -0.05752669813010089 -0.045173175196081702 0 -0.045173175196081702 0.032692012999544218 0 0 0 -0.0062086712826391055 0.0013943749658320015 -0.0098741732472533705 0 -0.0098741732472533705 0.014782173082363514 0 0 0 0.0040441370120488096 -0.00038504610755646373 0.0074754615603252472 0 0.0074754615603252472 -0.0049810199405628808 0 0 0 -0.0013415165120297945 -0.073446249317220366 0.0082714659534797938 0 0.0082714659534797938 0.091162139369254408 0 0 0 0.0044289725130085313 -0.0078522411375137047 0.0081718845961242202 0 0.0081718845961242202 -0.0051214060426474362 0 0 0 -0.0032434117950397301 -0.025165207257574984 -0.019676525077860774 0 -0.019676525077860774 0.096441741533937364 0 0 0 0.017819133569090928 -0.14649066191579785 0.0027788055073327544 0 0.0027788055073327544 0.0010379549126956489 0 0 0 -0.036363176750775529 -0.22975846462157268 -0.010219448403900155 0 -0.010219448403900155 0.0015901887364142553 0 0 0 -0.057042068971289599 -0.025919892873038003 -0.040589350216671469 0 -0.040589350216671469 0.013403165007674356 0 0 0 -0.0031291819663409048 0.126963946428646 -0.079874331697574741 0 -0.079874331697574741 0.063855976321594676 0 0 0 0.047704980687560128 -0.036032991584701302 -0.025804275755095446 0 -0.025804275755095446 -0.0015055017840477358 0 0 0 -0.0093846233421872594 -0.038070071315303947 -0.033055027816834254 0 -0.033055027816834254 0.00092166668928028717 0 0 0 -0.0092871011565058975 -0.00025409071336495131 -0.0083568208517896814 0 -0.0083568208517896814 0.026244569608476744 0 0 0 0.0064976197237781143 -0.001717267307653092 0.0068347108203923312 0 0.0068347108203923312 0.021574631288897805 0 0 0 0.0049643409953108453 -0.00050482336187940291 0.0097626128621488562 0 0.0097626128621488562 0.053271424305062709 0 0 0 0.013191650235795827 -0.001871257636645847 -0.0058944823663658052 0 -0.0058944823663658052 0.0099581321738483781 0 0 0 0.0020217186343006884 -0.090713453427251289 0.045638146249091627 0 0.045638146249091627 0.11455111176164279 0 0 0 0.0059594145835978884 -0.049655950471032273 -0.022734613604430159 0 -0.022734613604430159 0.0034210961419751662 0 0 0 -0.011558713582264291 -0.040912193118381582 -0.018871812203033744 0 -0.018871812203033744 -0.0019925005804433682 0 0 0 -0.010726173424706237 -0.038287987340798059 -0.019083868591390774 0 -0.019083868591390774 -0.0030422990073318557 0 0 0 -0.01033257158703247 -0.022149576574126972 -0.043644152926017296 0 -0.043644152926017296 0.021469939146052219 0 0 0 -0.0001699093570186605 -0.1983076225740496 0.02813539374864682 0 0.02813539374864682 0.0039276586381067347 0 0 0 -0.048594990983985731 -0.093172032001635846 -0.0058519028152697883 0 -0.0058519028152697883 0.028015501634458317 0 0 0 -0.016289132591794347 -0.078566673816836963 -0.015623510646455903 0 -0.015623510646455903 0.02588783121712146 0 0 0 -0.013169710649928779 -0.023307850560581406 0.0037803298844892863 0 0.0037803298844892863 -0.010066954024075203 0 0 0 -0.0083437011461642563 -0.14235786184098487 0.049476649220642654 0 0.049476649220642654 -0.0032109740435437573 0 0 0 -0.036392208971132156 -0.1297161023490237 0.0046811032726784274 0 0.0046811032726784274 0.0059948976260337794 0 0 0 -0.030930301180747438 -0.12761913569268185 -0.0060769687810963702 0 -0.0060769687810963702 0.0079055232089194627 0 0 0 -0.029928403120940611 -0.20477197755658677 0.0033071243409777962 0 0.0033071243409777962 0.017394656775087558 0 0 0 -0.046844330195374762 -0.20036395004142205 -0.022252288058174668 0 -0.022252288058174668 0.017058062138894492 0 0 0 -0.045826471975631944 -0.042410649864817219 -0.016288676339534125 0 -0.016288676339534125 0.00054083320011912017 0 0 0 -0.01046745416617454 -0.12115345650304288 -0.012713049630409923 0 -0.012713049630409923 0.0023796195736855985 0 0 0 -0.029693459232339348 0.018219504429127675 0.086230784300964314 0 0.086230784300964314 0.038373565752035432 0 0 0 0.014148267545290638 -0.075175042951612037 -0.022541810074787547 0 -0.022541810074787547 0.069289044941358444 0 0 0 -0.0014714995025634321 -0.042807982668204486 0.018141803790101899 0 0.018141803790101899 0.028231731125711149 0 0 0 -0.0036440628856233451 -0.039984494187907171 0.034271923111785618 0 0.034271923111785618 -0.0032364439287420055 0 0 0 -0.010805234529161933 -0.033417159444751821 -0.035057447356394489 0 -0.035057447356394489 0.028333900203840523 0 0 0 -0.0012708148102278938 -0.043248419829261482 -0.0420365371672419 0 -0.0420365371672419 0.037498938890093356 0 0 0 -0.0014373702347920735 -0.0084177497336654916 0.0065826469012576216 0 0.0065826469012576216 -0.0042517796109680095 0 0 0 -0.0031673823361584308 -0.039701782332509761 -0.018787230987297038 0 -0.018787230987297038 -0.0082817957333496395 0 0 0 -0.011995894516464822 -0.069155762375079935 -0.011814457772142531 0 -0.011814457772142531 -0.028202482611552643 0 0 0 -0.024339561246658144 -0.070262176049815037 0.0047997022018221539 0 0.0047997022018221539 -0.020925484772266301 0 0 0 -0.022796915205520334 -0.04110015832610743 -0.047065638426308842 0 -0.047065638426308842 0.022981207798614428 0 0 0 -0.0045297376318733235 -0.10296534941080075 -0.028738061844227447 0 -0.028738061844227447 -0.0055539068339249542 0 0 0 -0.027129814061181409 -0.12521301221995113 -0.0045662981784845395 0 -0.0045662981784845395 0.036025766064232467 0 0 0 -0.022296811538929595 -0.048105488344724751 -0.0028328472583836507 0 -0.0028328472583836507 -0.02544457456283573 0 0 0 -0.018387515726890118 -0.045976242101543892 -3.5549681794301308e-05 0 -3.5549681794301308e-05 -0.021238006791936753 0 0 0 -0.01680356222337016 -0.056282808310206121 0.0022605809067809497 0 0.0022605809067809497 -0.016780834072769191 0 0 0 -0.018265910595743822 -0.056655587375297981 0.0033846782171283378 0 0.0033846782171283378 -0.017479459404855041 0 0 0 -0.018533761695038255 -0.11045674825381484 -0.02026795494613054 0 -0.02026795494613054 0.037162330279978617 0 0 0 -0.018323604493459031 -0.055174568216369888 0.014065862818563651 0 0.014065862818563651 0.025836936030927155 0 0 0 -0.0073344080463606728 -0.043284797186931186 -0.0031022750395921796 0 -0.0031022750395921796 -0.017801496284686417 0 0 0 -0.015271573367904395 -0.074051611224524444 -0.025586879610087279 0 -0.025586879610087279 -0.0059666815514027305 0 0 0 -0.020004573193981766 -0.058532102949931858 0.017112446105449913 0 0.017112446105449913 0.074061038097488985 0 0 0 0.0038822337868892687 -0.072908284996692135 -0.0047483664727015276 0 -0.0047483664727015276 0.0024913684460773217 0 0 0 -0.0176042291376537 -0.070500965576536873 -0.0032920225199832183 0 -0.0032920225199832183 0.0093714931691362968 0 0 0 -0.015282368101850158 -0.15170717588246785 0.0014497417874403734 0 0.0014497417874403734 -0.050535415463186226 0 0 0 -0.050560647836413515 -0.12028164461992782 -0.010347484392092286 0 -0.010347484392092286 -0.040070050252046359 0 0 0 -0.040087923717993544 0.10283261872348304 0.04881235430418307 0 0.04881235430418307 0.056712746842690009 0 0 0 0.039886341391543345 -0.059434307325014653 0.0010666417606708281 0 0.0010666417606708281 -0.00030215786332326786 0 0 0 -0.014934116297084483 -0.086277772415419979 -0.016144643128157526 0 -0.016144643128157526 0.084077659300734298 0 0 0 -0.00055002827867142723 -0.017678127549188904 0.00047047665236321645 0 0.00047047665236321645 -0.019923729722805539 0 0 0 -0.0094004643179985692 -0.14161757837394059 0.0044885392189905893 0 0.0044885392189905893 0.0014184592964672504 0 0 0 -0.035049779769368378 -0.21438950222951758 -0.01235422661604843 0 -0.01235422661604843 0.001821141790670916 0 0 0 -0.053142090109711757 -0.040847751754593896 -0.016287634046483312 0 -0.016287634046483312 -0.012760398784838978 0 0 0 -0.013402037634858331 -0.12975219181844508 0.0076213349480327569 0 0.0076213349480327569 0.00036107970925818348 0 0 0 -0.0323477780272967 -0.15858122305562811 -0.034500735582369629 0 -0.034500735582369629 0.0012499040852271548 0 0 0 -0.039332829742600203 -0.13000361653729142 0.003599311585047768 0 0.003599311585047768 0.00023012314434683878 0 0 0 -0.032443373348236174 -0.088306803291812494 0.00032141925675288618 0 0.00032141925675288618 -0.0064538444181588758 0 0 0 -0.023690161927492872 -0.081027744598597545 -0.014308146365039312 0 -0.014308146365039312 -0.014183935179049287 0 0 0 -0.023802919944411714 -0.11821520914019458 -0.025168467600770766 0 -0.025168467600770766 0.015852075644191332 0 0 0 -0.025590783374000739 -0.049161410265405436 -0.0174491661569523 0 -0.0174491661569523 0.00085412601178158631 0 0 0 -0.012076821063405963 -0.02623995502816312 0.041338045138160417 0 0.041338045138160417 0.059891388208246354 0 0 0 0.0084128582950211417 -0.032787257608768217 -0.023644054627424249 0 -0.023644054627424249 -0.0054275971116726218 0 0 0 -0.0095537136801102651 -0.05167977483418526 -0.0023898638728784452 0 -0.0023898638728784452 -0.022638257261761996 0 0 0 -0.018579508023986814 -0.06230746475429929 0.001380713020976054 0 0.001380713020976054 -0.019214784855412753 0 0 0 -0.020380562402428012 -0.084039665275451952 -0.014433311743561158 0 -0.014433311743561158 -0.03043765800333819 0 0 0 -0.028619330819697534 -0.079696600785358354 0.0040989396041158747 0 0.0040989396041158747 -0.022819958581457727 0 0 0 -0.025629139841704021 -0.07727534521338357 -0.016724119663509326 0 -0.016724119663509326 0.014873016143507611 0 0 0 -0.015600582267469007 -0.075872929317962981 -0.028433964484229968 0 -0.028433964484229968 0.0198395912364982 0 0 0 -0.01400833452036622 -0.073155576687344626 0.084853969168902171 0 0.084853969168902171 0.019668022890182435 0 0 0 -0.013371888449290603 -0.015870872479755604 0.11063250681073533 0 0.11063250681073533 0.063841581019838944 0 0 0 0.011992677135020724 0.040959506167395923 0.0013051870339234883 0 0.0013051870339234883 0.077430794122794466 0 0 0 0.029597575072547608 -0.092151515990513952 -0.011790319131271584 0 -0.011790319131271584 0.064249302305732336 0 0 0 -0.0069755534211954073 -0.044105156941868229 0.003536400633843707 0 0.003536400633843707 -0.016494925706918101 0 0 0 -0.015150020662196581 -0.05013277608865857 -0.024118004200448281 0 -0.024118004200448281 -0.0060532226947586087 0 0 0 -0.014046499695854309 -0.06827866059898291 0.059663824967567058 0 0.059663824967567058 0.0034076105391229738 0 0 0 -0.016217762514964651 -0.025021142414628494 -0.0073006821327095128 0 -0.0073006821327095128 0.05526652364169915 0 0 0 0.0075613453067676639 -0.026762712030725694 -0.011514489653877469 0 -0.011514489653877469 -0.0069290374669737087 0 0 0 -0.0084229373744248159 -0.068566008705680276 0.00036624215771532357 0 0.00036624215771532357 -0.0096120531958973007 0 0 0 -0.019544515475394389 -0.11782982645502887 0.028671616880434458 0 0.028671616880434458 0.064318485979618645 0 0 0 -0.013377835118852488 -0.14557213565388979 0.00056213211105324485 0 0.00056213211105324485 -0.0024829286433432907 0 0 0 -0.037013766074308285 -0.20544824698581626 -0.0050733777019859221 0 -0.0050733777019859221 -0.0049342639919839199 0 0 0 -0.052595627744450042 -0.039955773113262066 -0.023784234411698163 0 -0.023784234411698163 0.00053882305006996978 0 0 0 -0.0098542375157980033 -0.094070284777272223 -0.0015245938072010691 0 -0.0015245938072010691 -0.017596831727254337 0 0 0 -0.027916779126131649 -0.10118880225070974 -0.0092454903041891863 0 -0.0092454903041891863 -0.027060515296096339 0 0 0 -0.032062329386701505 -0.23859568267720893 0.0071885322838662891 0 0.0071885322838662891 0.0046285518291249161 0 0 0 -0.058491782712021101 -0.14073239172969593 -0.0035531391942497659 0 -0.0035531391942497659 0.0012300094635608882 0 0 0 -0.034875595566533801 -0.010650444637630957 0.037110930449172352 0 0.037110930449172352 0.16275650615229525 0 0 0 0.038026515378666109 0.076058177192187132 0.0010724854708607789 0 0.0010724854708607789 0.38943154743326769 0 0 0 0.11637243115636373 -0.048289497391961048 -0.051727913231858214 0 -0.051727913231858214 0.029605384536954382 0 0 0 -0.0046710282137516629 -0.065023847841759741 -0.044926362806875841 0 -0.044926362806875841 0.018609482266131683 0 0 0 -0.011603591393906931 -0.044114484218505938 -0.052034403190534415 0 -0.052034403190534415 0.071368087963154525 0 0 0 0.0068134009361621216 -0.0039530730672828196 0.0025881051347330652 0 0.0025881051347330652 -0.015006518314979012 0 0 0 -0.0047398978455654439 -0.048995846740216301 -0.00037871964959366035 0 -0.00037871964959366035 -0.020461196837521043 0 0 0 -0.017364260894434325 -0.10023728499354423 -0.012198203797689766 0 -0.012198203797689766 0.016116695882912757 0 0 0 -0.02103014727765784 9.3714727041116497e-05 -0.0026436409770774633 0 -0.0026436409770774633 0.0016641723912245165 0 0 0 0.00043947177956649153 -0.2023236397674445 0.030839392558601242 0 0.030839392558601242 -0.00088741451244966907 0 0 0 -0.050802763569973375 -0.036764146806667064 0.033360759651421379 0 0.033360759651421379 -0.0021365541425888424 0 0 0 -0.0097251752373139766 -0.02702500724918333 -0.034999949516297368 0 -0.034999949516297368 0.025427763678239845 0 0 0 -0.00039931089273559373 -0.060245184018182033 0.00075582140002584258 0 0.00075582140002584258 0.020321333155470817 0 0 0 -0.009980962715677803 -0.086149858371542737 -0.023692394247899928 0 -0.023692394247899928 0.019494862600419105 0 0 0 -0.01666374894278097 -0.043424502440285055 0.010033941251756627 0 0.010033941251756627 -0.0007706178646303824 0 0 0 -0.011048780076228872 -0.038452251591481829 0.015683109466347309 0 0.015683109466347309 0.010697742498045101 0 0 0 -0.0069386272733591662 -0.12269349303860058 -0.024688245752316519 0 -0.024688245752316519 -0.0017130648241939078 0 0 0 -0.031101639465698626 -0.057277768587020161 -0.041230686908504177 0 -0.041230686908504177 0.0066629365072317093 0 0 0 -0.01265370801994703 -0.17407285405098355 -0.020106077230925182 0 -0.020106077230925182 -0.0085926726967649573 0 0 0 -0.04566638168693711 -0.041850120573919014 0.058672195315321751 0 0.058672195315321751 0.013463933601538969 0 0 0 -0.0070965467430947893 -0.045123148231153473 0.06203089269755413 0 0.06203089269755413 0.011827900087817367 0 0 0 -0.0083238120358343076 -0.048910412705665429 0.064787203727429521 0 0.064787203727429521 0.0045171668608645632 0 0 0 -0.011098311461199994 -0.044112600686026737 -0.038885631656993436 0 -0.038885631656993436 0.006807287983871646 0 0 0 -0.0093263281755386895 -0.052971087957063047 -0.03846602283671563 0 -0.03846602283671563 0.0038361737168478086 0 0 0 -0.012283728560053865 0.044464014041963387 0.048562660687163708 0 0.048562660687163708 0.090372135532026499 0 0 0 0.033709037393497482 -0.049615508678739019 -0.003189899560240129 0 -0.003189899560240129 -0.016545837290098491 0 0 0 -0.01654033649220938 -0.057485770432669163 0.0027025278861260585 0 0.0027025278861260585 -0.019163269553309038 0 0 0 -0.019162259996494551 -0.057906608294329684 0.0029595875997672043 0 0.0029595875997672043 0.0026308720113377309 0 0 0 -0.013818934070747985 -0.020184599010256432 -0.02596477914940612 0 -0.02596477914940612 0.11600249553640407 0 0 0 0.023954474131536924 -0.14327247726141379 -0.031727431178321469 0 -0.031727431178321469 -0.0037004743767184989 0 0 0 -0.036743237909533086 -0.047391144828314496 0.0015104092859153408 0 0.0015104092859153408 -0.019064162659825343 0 0 0 -0.016613826872034956 -0.20609616258123442 -0.0079164646971051633 0 -0.0079164646971051633 -0.0048755444391822868 0 0 0 -0.052742926755104183 -0.14192070445277796 0.0016003525292467846 0 0.0016003525292467846 -0.0011896334558504085 0 0 0 -0.035777584477157072 -0.12400810992064337 -0.014703064696295287 0 -0.014703064696295287 0.0001057903853447506 0 0 0 -0.0309755798838246 -0.051920485210427803 0.0034689551234731546 0 0.0034689551234731546 -0.014154444247867687 0 0 0 -0.016518732364573872 -0.035144191253702661 -0.0083280265233158235 0 -0.0083280265233158235 0.029584590323218668 0 0 0 -0.001389900232620922 -0.069243707444939337 0.010416292167286831 0 0.010416292167286831 0.050538420318510538 0 0 0 -0.0046763217816072154 -0.012719492482698873 0.07185955413130718 0 0.07185955413130718 0.01859633690291132 0 0 0 0.0014692111050530546 -0.042552783861637189 0.0037396422721600129 0 0.0037396422721600129 -0.019383261082406032 0 0 0 -0.015484011236010812 -0.026480738600332288 0.030972234748401162 0 0.030972234748401162 -0.00019329678989432608 0 0 0 -0.0066685088475564314 -0.023333240613939932 -0.031690851601378078 0 -0.031690851601378078 0.012173267239119046 0 0 0 -0.0027899933437054436 -0.052246908683315094 0.0033917000334242331 0 0.0033917000334242331 -0.015096795506458318 0 0 0 -0.016835926047443349 -0.083503103515250365 -0.00027072423044550466 0 -0.00027072423044550466 0.065509614493943213 0 0 0 -0.004498372255326788 -0.012453935525729598 0.024547195403213207 0 0.024547195403213207 0.036963346301941868 0 0 0 0.0061273526940537337 -0.006325799611255345 0.019015606201515656 0 0.019015606201515656 0.0035209544295016215 0 0 0 -0.00070121129543876393 -0.006076175280362639 -0.015489225505368104 0 -0.015489225505368104 -0.0028810599753272825 0 0 0 -0.0022393088139225359 -0.0099350017312956895 -0.021295368177529861 0 -0.021295368177529861 0.017021554890196633 0 0 0 0.0017716382897250416 -0.15500574105386422 0.0040919202988807246 0 0.0040919202988807246 0.037991683545195332 0 0 0 -0.029253514377167167 -0.097253352491031453 -0.027955941387389882 0 -0.027955941387389882 0.011420992073061964 0 0 0 -0.021458090104492483 -0.1086097001371869 -0.027722382771276088 0 -0.027722382771276088 0.010742825254902222 0 0 0 -0.024466718720571212 -0.16814060663493369 0.060478827071565433 0 0.060478827071565433 0.024972379852775006 0 0 0 -0.035792056695539531 -0.14252629183568166 0.061055052019560879 0 0.061055052019560879 0.026669475101999573 0 0 0 -0.028964204183420383 -0.065415936363221308 0.00041983823804844604 0 0.00041983823804844604 -0.017313615233987698 0 0 0 -0.020682387899302251 0.078026267884646949 0.039854346960021846 0 0.039854346960021846 0.047791260790447598 0 0 0 0.031454382168773609 -0.12786522287937238 -0.0094700601870529762 0 -0.0094700601870529762 -0.029078094697299824 0 0 0 -0.039235829394168066 -0.10740505339640698 -0.0031302311327588983 0 -0.0031302311327588983 -0.020803569325742014 0 0 0 -0.032052155680537243 -0.083283347852235207 -0.019878043526541184 0 -0.019878043526541184 0.042448658650441645 0 0 0 -0.010208672300448394 -0.084550400039384577 0.0019389866799960128 0 0.0019389866799960128 -0.013175181089064644 0 0 0 -0.0244313952821123 -0.084174809714007454 -0.015058672514885614 0 -0.015058672514885614 -0.026607045398273126 0 0 0 -0.027695463778070143 -0.17543018147512712 -0.025269174563225527 0 -0.025269174563225527 0.0039124324103263775 0 0 0 -0.042879437266200193 -0.17735632978316013 -0.026463593055575413 0 -0.026463593055575413 -0.00085801676156618822 0 0 0 -0.044553586636181607 -0.017336341437162339 0.037717393131674881 0 0.037717393131674881 0.061092221676777747 0 0 0 0.010938970059903852 -0.016008098504297852 -0.017383680786359601 0 -0.017383680786359601 0.0024789328936236643 0 0 0 -0.0033822914026686579 -0.0051485207859098018 -0.0032188784606805854 0 -0.0032188784606805854 0.036641228811326719 0 0 0 0.0078731770063541172 -0.0018514800245808538 0.0039391942988113993 0 0.0039391942988113993 0.0057796954947268997 0 0 0 0.00098205386753641433 -0.083919139747941976 -0.0019740787156906844 0 -0.0019740787156906844 0.0020593814160004276 0 0 0 -0.020464939582985377 -0.0059417161164831422 -0.0061281874581203821 0 -0.0061281874581203821 0.086914436016753305 0 0 0 0.020243179975067471 -0.0068816160571499585 -0.0022649695958404381 0 -0.0022649695958404381 0.15630804327094472 0 0 0 0.037356606803448683 -0.0297464020698016 -0.013883725336091446 0 -0.013883725336091446 0.027828118596742661 0 0 0 -0.00047957086826465323 -0.11584555254718162 -0.01464386352591647 0 -0.01464386352591647 0.014603545537257401 0 0 0 -0.025310501752480979 -0.00071036548481540063 0.00054348500644912923 0 0.00054348500644912923 -0.011255860942942064 0 0 0 -0.0029915566069394495 -0.17415202158053958 -0.034653613524656623 0 -0.034653613524656623 0.011603613602099716 0 0 0 -0.040637101994609959 -0.062397262962288598 0.0017548326755814662 0 0.0017548326755814662 0.014664827633608523 0 0 0 -0.011933108832170022 -0.074984892396233793 -0.040126533047948276 0 -0.040126533047948276 0.032762459153766521 0 0 0 -0.010555608310616804 -0.072006695601762871 -0.036894962581700164 0 -0.036894962581700164 0.02931270314144907 0 0 0 -0.010673498115078561 -0.086820077920009148 0.0030964992176144082 0 0.0030964992176144082 -0.0005839392049399178 0 0 0 -0.02185100428123727 -0.09709406572474949 -0.023586946992109309 0 -0.023586946992109309 0.020803521665310409 0 0 0 -0.019072636014859701 -0.094321598744114998 -0.00023107502284823098 0 -0.00023107502284823098 -0.0017077052567181505 0 0 0 -0.024007326000208294 -0.078507544779672991 -0.016762623364093242 0 -0.016762623364093242 -0.018795333806730555 0 0 0 -0.02432571964660089 -0.11973169805800293 -0.014451984833695419 0 -0.014451984833695419 0.012640745623143212 0 0 0 -0.026772738108714889 -0.1938366085683004 0.025357564453079129 0 0.025357564453079129 0.044546139248081151 0 0 0 -0.037322617330054791 -0.12783056442891283 -0.010969129315355961 0 -0.010969129315355961 -0.029346805046241389 0 0 0 -0.039294342368788558 -0.10566564135317889 -0.0016715007452907332 0 -0.0016715007452907332 -0.024088188109969325 0 0 0 -0.032438457365787057 -0.098411242666843535 0.0038993996605496267 0 0.0038993996605496267 -0.0046123133617258782 0 0 0 -0.025755889007142353 -0.10978813874764295 -0.024312113531276911 0 -0.024312113531276911 -0.014844426237372504 0 0 0 -0.031158141246253872 -0.060405494454152296 -0.0052190421288045921 0 -0.0052190421288045921 -0.026408659164580441 0 0 0 -0.021703538404683191 -0.021393466363032715 -0.056801172157675606 0 -0.056801172157675606 0.065906486326866742 0 0 0 0.011128254990958514 -0.039396794195662214 0.0063566807312665646 0 0.0063566807312665646 -0.01606485209410604 0 0 0 -0.013865411572442067 -0.017592955984496506 0.023451328472356758 0 0.023451328472356758 0.0018931114486893108 0 0 0 -0.0039249611339515766 -0.019672529432979369 -0.032310504437894072 0 -0.032310504437894072 0.028439386289730528 0 0 0 0.0021917142141876234 -0.096425278120112673 0.0024438846826205368 0 0.0024438846826205368 -0.0089190772194071427 0 0 0 -0.026336088834879944 -0.10162454391634174 -0.019432632888621737 0 -0.019432632888621737 -0.022060207095817529 0 0 0 -0.030921187753039817 -0.044454356315038385 0.0066151243026530207 0 0.0066151243026530207 -0.0088479335039163224 0 0 0 -0.013325572454738676 -0.046962630648016757 -0.045415362165927967 0 -0.045415362165927967 0.045031313800583117 0 0 0 -0.00048282921185843763 -0.0931519436755881 0.018419070594558024 0 0.018419070594558024 -0.0021660903242937124 0 0 0 -0.023829508499970675 -0.02137554869643532 -0.019544179900259251 0 -0.019544179900259251 0.055366852156347734 0 0 0 0.008497825864978048 -0.058289467417224516 -0.039305916166519683 0 -0.039305916166519683 0.0058484866974799488 0 0 0 -0.013110245179936197 -0.086906876263502297 -0.016272154191434463 0 -0.016272154191434463 0.071351517827801941 0 0 0 -0.0038888396089251306 -0.17965164548368606 -0.015767559214337611 0 -0.015767559214337611 -0.004763319455618073 0 0 0 -0.046103741234826079 -0.13017955093687458 0.0010540857130445433 0 0.0010540857130445433 -0.003200959690355748 0 0 0 -0.033345127656807583 -0.025364112003878558 0.01098778818736687 0 0.01098778818736687 0.005181533883777012 0 0 0 -0.0050456445300254144 -0.049452913685201869 0.0035697847755890655 0 0.0035697847755890655 -0.015097854023270491 0 0 0 -0.01613769192711809 -0.069901250891580391 -0.028955816653272223 0 -0.028955816653272223 0.013297187511811304 0 0 0 -0.014151015844942244 -0.18346512274262411 -0.019749310342241106 0 -0.019749310342241106 -0.0020079750351275696 0 0 0 -0.046368274444437911 -0.13524211999705421 0.0051994297200882444 0 0.0051994297200882444 -0.0013045769414176678 0 0 0 -0.034136674234618011 -0.067725333434534546 0.0051607533334923489 0 0.0051607533334923489 0.072959790744849637 0 0 0 0.0013086143275787658 -0.036696180339051976 -0.033496666046597234 0 -0.033496666046597234 0.0057815977375286209 0 0 0 -0.0077286456503808942 -0.037388804869827208 0.050388449442619498 0 0.050388449442619498 0.015999801936017022 0 0 0 -0.0053472507334522135 -0.11534057568520253 -0.0011094750005716525 0 -0.0011094750005716525 0.011251513579882064 0 0 0 -0.0260222655263301 -0.099071025667899756 -0.0092301740953876221 0 -0.0092301740953876221 0.015168450438781848 0 0 0 -0.020975643807279516 -0.053583179626706529 -0.018922461196565474 0 -0.018922461196565474 0.028922557525053905 0 0 0 -0.0061651555254131213 -0.057648023313356833 -0.019766069656421303 0 -0.019766069656421303 0.039805476643660721 0 0 0 -0.0044606366674239915 -0.073024704347969538 -0.0109230027003288 0 -0.0109230027003288 -0.029040523798873452 0 0 0 -0.025516307036710751 -0.071007002826539711 -0.0057701086063271087 0 -0.0057701086063271087 -0.025973940472616759 0 0 0 -0.024245235824789109 -0.077902499837708639 -0.00050135575867148521 0 -0.00050135575867148521 -0.018430691880356238 0 0 0 -0.024083297929516204 -0.076241957721845707 0.0027942013886951621 0 0.0027942013886951621 -0.017663099330257188 0 0 0 -0.023476264263025719 -0.037506545296591143 -0.0095012168287182119 0 -0.0095012168287182119 -6.9942283555946005e-05 0 0 0 -0.0093941218950368 -0.077528199730254529 -0.0037650799463847216 0 -0.0037650799463847216 0.077228444132248955 0 0 0 -7.4938899501381454e-05 -0.035831532954351875 0.010534172538202439 0 0.010534172538202439 0.00064777453084979841 0 0 0 -0.0087959396058755034 -0.032953109666688185 0.053752220878819958 0 0.053752220878819958 0.023933892262507861 0 0 0 -0.002254804351045081 -0.051147213739648922 -0.035558286802677253 0 -0.035558286802677253 0.001041087679134467 0 0 0 -0.012526531515128614 -0.02576724880741077 0.065897192426410678 0 0.065897192426410678 0.015411990340449933 0 0 0 -0.0025888146167403203 -0.029398684741403024 -0.0081873054376437951 0 -0.0081873054376437951 0.0031152788272750948 0 0 0 -0.0065708514785319874 -0.021421899739515318 0.0039570358730864202 0 0.0039570358730864202 0.017337007051121983 0 0 0 -0.0010212231720983511 -0.073719096537114392 0.074874049106017693 0 0.074874049106017693 0.0036912897174059545 0 0 0 -0.01750695170492711 -0.048059652364669914 0.075670960079793126 0 0.075670960079793126 0.010071933945978717 0 0 0 -0.0094969296046728546 -0.14035814217478765 -0.0084672861225405897 0 -0.0084672861225405897 -0.017991183005574864 0 0 0 -0.039587331295090594 -0.11440978813754514 -0.0036956308243026505 0 -0.0036956308243026505 -0.014834065597613574 0 0 0 -0.032310963433789697 -0.041279888734251258 -0.044866286587845028 0 -0.044866286587845028 0.02248148799358618 0 0 0 -0.0046996001851661862 0.00068155893890864405 -0.0056677929137807026 0 -0.0056677929137807026 0.08588628929490949 0 0 0 0.021641962058454478 -0.0087187273838170709 0.00072465947225419658 0 0.00072465947225419658 0.16226141105175096 0 0 0 0.038385670916983472 -0.078762408330611253 -0.00064610841404439247 0 -0.00064610841404439247 0.048377431211393387 0 0 0 -0.0075962442798044377 -0.030200748179396851 0.016455136775014562 0 0.016455136775014562 0.0089346349856723462 0 0 0 -0.0053165282984311418 -0.013792181328406261 -0.0024982560407955101 0 -0.0024982560407955101 -0.012987416362234105 0 0 0 -0.0066948994226601055 -0.027053874763761254 -0.0049972033275254568 0 -0.0049972033275254568 -0.018376226276564545 0 0 0 -0.011357525260081436 -0.042257035161490264 -0.015573452053003506 0 -0.015573452053003506 -0.0048141353360322547 0 0 0 -0.011767792624380685 -0.02625448580191625 0.018592900049184902 0 0.018592900049184902 -0.004144376625545898 0 0 0 -0.0075997156068652316 -0.020912026995296415 -0.032756780316625989 0 -0.032756780316625989 0.04186287443894926 0 0 0 0.0052377118609131107 -0.0037182576882482943 0.0083037844334427624 0 0.0083037844334427624 0.032442445495428185 0 0 0 0.0071810469517950004 -0.0059235961644953372 -0.012457102843104861 0 -0.012457102843104861 0.081603193813932329 0 0 0 0.01891989941235922 -0.025534826570274394 0.03860843536027625 0 0.03860843536027625 0.031039870143930948 0 0 0 0.0013762608934142495 -0.02241618671418355 -0.024935602251614286 0 -0.024935602251614286 -0.004214478562407864 0 0 0 -0.0066576663191478813 -0.046133039487540939 0.0042733206360645905 0 0.0042733206360645905 -0.013950571680813182 0 0 0 -0.015020902792088533 -0.042185775124441813 0.0077928508160524379 0 0.0077928508160524379 -0.0093924137008528953 0 0 0 -0.012894547206323676 -0.028644120813733576 0.044360313401685225 0 0.044360313401685225 0.040609640180815809 0 0 0 0.0029913798417702253 -0.02943142455739256 -0.025943606141639819 0 -0.025943606141639819 0.0031022644247324926 0 0 0 -0.0065822900331649059 -0.11138840637342352 -0.0127397715517929 0 -0.0127397715517929 -0.02805271878319416 0 0 0 -0.034860281289154429 -0.097516426544535975 0.00017216384390018966 0 0.00017216384390018966 -0.021377215040167957 0 0 0 -0.02972341039617598 -0.0027640874489939238 0.084207116805322779 0 0.084207116805322779 0.03244070716437486 0 0 0 0.0074191549288452618 -0.16221819958434527 -0.0032861639855672406 0 -0.0032861639855672406 -0.027807903480368872 0 0 0 -0.047506525766178524 -0.12771057077430051 -0.0078223222177737552 0 -0.0078223222177737552 -0.021687421869533197 0 0 0 -0.037349498160958429 -0.038479058940923627 0.016253861456469565 0 0.016253861456469565 -0.0063817870641216246 0 0 0 -0.01121521150126159 -0.020007871342910377 -0.023508389883900693 0 -0.023508389883900693 0.071937082613301229 0 0 0 0.012982302817597713 -0.070905787235253009 -0.0070689500058792043 0 -0.0070689500058792043 0.098808602133238554 0 0 0 0.0069757037244963863 -0.10613752892168804 -0.00055873664884348306 0 -0.00055873664884348306 0.094354428006211966 0 0 0 -0.0029457752288690187 -0.066627519856323425 -0.041678186677028273 0 -0.041678186677028273 0.012985155043200525 0 0 0 -0.013410591203280808 -0.034027654782170111 -0.030998067342568499 0 -0.030998067342568499 0.0072993329472818558 0 0 0 -0.0066820804587220672 -0.0723793432697869 0.087227399035373687 0 0.087227399035373687 0.024599871394166417 0 0 0 -0.011944867968904815 -0.13941664212611427 0.058361203790269989 0 0.058361203790269989 0.030102651277871928 0 0 0 -0.027328497712060695 -0.096757625856793705 -0.027707279293245374 0 -0.027707279293245374 0.012578630015179781 0 0 0 -0.021044748960403425 -0.0076423692402199928 -0.061873101689910198 0 -0.061873101689910198 0.047145311014096913 0 0 0 0.0098757354434692579 -0.019983817952772515 -0.00016279332642937794 0 -0.00016279332642937794 0.050647706029983752 0 0 0 0.0076659720193028302 -0.026821008815784975 -0.0068014646175571236 0 -0.0068014646175571236 0.097036193629545187 0 0 0 0.017553796203440108 -0.077838790599114291 -0.025518874360809712 0 -0.025518874360809712 0.046351659778116838 0 0 0 -0.0078717827052493944 -0.070148991944701991 -0.018229273657516427 0 -0.018229273657516427 0.045125308673599707 0 0 0 -0.0062559208177755954 -0.053170055942317496 0.022374934822120232 0 0.022374934822120232 0.11145399695497185 0 0 0 0.014570985253163589 -0.027263741090217786 -0.035363157894347991 0 -0.035363157894347991 0.064757296789511032 0 0 0 0.0093733889248233115 -0.018700064415171802 0.035603086432059117 0 0.035603086432059117 0.085761291764747227 0 0 0 0.016765306837393634 -0.020507503495929669 -0.014712640185340131 0 -0.014712640185340131 -0.0049542020262327569 0 0 0 -0.0063654263805408284 -0.072955892916912207 0.011926460004395893 0 0.011926460004395893 0.066843932503511866 0 0 0 -0.0015279901033500923 -0.047231104975552801 -0.0066019333999714491 0 -0.0066019333999714491 0.025916307732166147 0 0 0 -0.0053286993108466463 -0.030389965621097748 -0.0074431214196749584 0 -0.0074431214196749584 -0.013126451204473089 0 0 0 -0.01087910420639282 -0.053347051744294091 0.020472217112098762 0 0.020472217112098762 0.044586764578966979 0 0 0 -0.0021900717913317788 -0.05106265980792625 -0.0032955203164236422 0 -0.0032955203164236422 -0.027082207025401244 0 0 0 -0.019536216708331871 -0.11665786899004948 -0.011339254868989958 0 -0.011339254868989958 0.0015002445857767999 0 0 0 -0.02878940610106806 -0.077364206765576635 -0.0098058220624063271 0 -0.0098058220624063271 -0.024005675144948085 0 0 0 -0.02534247047763117 -0.037092505929420851 0.012145197743904417 0 0.012145197743904417 -0.0015062086427926613 0 0 0 -0.0096496786430533728 -0.068919813255343104 0.0082828689840545155 0 0.0082828689840545155 0.093362921699819454 0 0 0 0.0061107771111191048 -0.18964870739934336 0.023415918771834267 0 0.023415918771834267 0.0017049855711004369 0 0 0 -0.046985930457060787 -0.04915857753681805 0.003244258070328404 0 0.003244258070328404 -0.017827006590052485 0 0 0 -0.016746396031717632 -0.038567413464665204 0.0012835048875127347 0 0.0012835048875127347 -0.0056924438915473552 0 0 0 -0.011064964339053136 -0.055556071113192371 -0.024944978144094354 0 -0.024944978144094354 0.0064845231936485614 0 0 0 -0.012267886979885942 -0.061711536675831069 -0.028877850843576636 0 -0.028877850843576636 2.7455660811748217e-05 0 0 0 -0.015421020253754969 -0.059868268367064617 -0.011632581538972803 0 -0.011632581538972803 -0.021641544420041427 0 0 0 -0.020377453196776515 -0.044927732742118177 0.0024971738726957196 0 0.0024971738726957196 -0.018892985288862768 0 0 0 -0.015955179507745238 -0.043245991989708868 -0.0034508275388024506 0 -0.0034508275388024506 -0.0027939557484122288 0 0 0 -0.011509986934530269 -0.058738479379559366 -0.027573062173365609 0 -0.027573062173365609 0.017259841830276124 0 0 0 -0.010369659387320845 -0.023332498500917898 -0.00070105504623188541 0 -0.00070105504623188541 0.032001446499008823 0 0 0 0.0021672369995228147 -0.12915239901654663 -0.036197191608207988 0 -0.036197191608207988 -0.0046388447266876853 0 0 0 -0.033447810935808564 -0.009313460719785005 0.021753752702576179 0 0.021753752702576179 0.13797672967733954 0 0 0 0.032165817239388717 -0.028673487174592283 -0.010937751356270065 0 -0.010937751356270065 -0.0040587293110446176 0 0 0 -0.0081830541214092944 -0.042550142816865769 0.0070882957430077774 0 0.0070882957430077774 -0.01130350313245472 0 0 0 -0.013463411487330138 -0.039572016880526195 0.0075595453192726578 0 0.0075595453192726578 -0.011072058156837327 0 0 0 -0.012661018759340888 -0.031277207348807234 0.020477793515875753 0 0.020477793515875753 0.0049777874918568443 0 0 0 -0.0065748549642377085 -0.029830093677025937 -0.030358529392811029 0 -0.030358529392811029 0.046775630404356505 0 0 0 0.0042363841818324754 -0.042697781244626982 0.013004634027842089 0 0.013004634027842089 0.011302666785844337 0 0 0 -0.007848778614695651 -0.052288611612710867 0.010205617634825661 0 0.010205617634825661 0.010164113218168128 0 0 0 -0.010531124598635689 -0.043139374949990414 0.0068467922477270836 0 0.0068467922477270836 -0.0095325198949469132 0 0 0 -0.013167973711234333 -0.11477889432786628 0.0036885037219659619 0 0.0036885037219659619 -0.0022930668318059538 0 0 0 -0.029267990289918024 -0.072298738122481596 -0.0088241913660979943 0 -0.0088241913660979943 0.021944120248893473 0 0 0 -0.012588654468397006 -0.05148079347110035 -0.013186126428210182 0 -0.013186126428210182 0.026029192088436293 0 0 0 -0.0063629003456660005 -0.12648280454972763 0.0039119819922844995 0 0.0039119819922844995 -0.0055056183551011884 0 0 0 -0.032997105726207197 0.044639544413255072 0.10984986503790117 0 0.10984986503790117 0.082293911304746892 0 0 0 0.031733363929500491 -0.028084926873654492 0.036906501324205726 0 0.036906501324205726 0.012031898362025117 0 0 0 -0.0040132571279070106 -0.02426220613429142 -0.033556793471815519 0 -0.033556793471815519 0.0084852114645430632 0 0 0 -0.0039442486674370336 -0.063309304630735141 -0.0014132931482321032 0 -0.0014132931482321032 0.010712950835955748 0 0 0 -0.013149088448694835 -0.046778323740421922 0.0023031713461027351 0 0.0023031713461027351 -0.018230510544628327 0 0 0 -0.016252208571262566 -0.0095503703818614061 -0.002456169590753586 0 -0.002456169590753586 0.031480217854532588 0 0 0 0.0054824618681677956 -0.04044138673633052 -0.013514905906069463 0 -0.013514905906069463 0.0098670365538549021 0 0 0 -0.0076435875456189462 -0.04609260041410379 -0.021360589691670706 0 -0.021360589691670706 -0.012822455858882975 0 0 0 -0.014728764068246691 -0.050614400833130728 0.005541359928602177 0 0.005541359928602177 -0.0020133270181255797 0 0 0 -0.013156931962814086 -0.10014603170757419 -0.025419863822542077 0 -0.025419863822542077 0.00053354039026332067 0 0 0 -0.024903122829327551 -0.0806995408353125 -0.030807503653736079 0 -0.030807503653736079 0.0070552925953772938 0 0 0 -0.018411062059983774 -0.045694749378729659 0.0003471068208662565 0 0.0003471068208662565 -0.015236639285955141 0 0 0 -0.015232847166171197 -0.1116197518185813 0.06200252004855622 0 0.06200252004855622 0.011158610830674487 0 0 0 -0.025115285246976704 -0.15035717242614099 0.051679508437684651 0 0.051679508437684651 -0.00070585876240647494 0 0 0 -0.037765757797136867 -0.012113836974953496 0.0072152745310153643 0 0.0072152745310153643 0.043632138914257101 0 0 0 0.0078795754848258737 -0.014347324334747891 -0.013665933121143725 0 -0.013665933121143725 0.083316526074145525 0 0 0 0.017242300434849367 -0.026987509185101954 -0.020815830219068049 0 -0.020815830219068049 0.015101917065271864 0 0 0 -0.0029713980299575227 -0.032635163165386005 -0.0024237597287199986 0 -0.0024237597287199986 -0.0088061685634986953 0 0 0 -0.010360332932221217 0.011698741134676921 0.051344102939594634 0 0.051344102939594634 0.14161335618100113 0 0 0 0.038328024328919491 -0.053600771794804922 -0.0072006898347707037 0 -0.0072006898347707037 -0.017749225918002771 0 0 0 -0.017837499428201939 -0.068150451883124935 -0.011194551619602255 0 -0.011194551619602255 0.046449128281580598 0 0 0 -0.0054253309003860703 0.031541193183647231 0.035483912711737675 0 0.035483912711737675 0.031009595843950244 0 0 0 0.015637697256899341 -0.0635631520896872 -0.0019342480438490663 0 -0.0019342480438490663 0.0085215532183427201 0 0 0 -0.013760399717836118 -0.024592049473143529 0.041833026689255703 0 0.041833026689255703 0.020640293164457812 0 0 0 -0.00098793907717142915 -0.024396047359855122 -0.027862492288119656 0 -0.027862492288119656 0.0058419363903903232 0 0 0 -0.004638527742366283 -0.061964616236332169 -0.000159535682082039 0 -0.000159535682082039 -0.0063597011066633957 0 0 0 -0.0170810793357489 -0.093301737238400004 -0.022535982374857082 0 -0.022535982374857082 0.07344077826295986 0 0 0 -0.0049652397438600671 -0.025415030617198964 0.032615108975981855 0 0.032615108975981855 0.087509208503515179 0 0 0 0.015523544471578665 -0.023339132031528043 -0.013926067652187291 0 -0.013926067652187291 0.0028528637210756269 0 0 0 -0.0051215670776131317 -0.16991520789844625 0.0020774326450710414 0 0.0020774326450710414 0.0013761083196413559 0 0 0 -0.042134774894701243 -0.29108668398814797 -0.0090334379409904471 0 -0.0090334379409904471 0.0025149020521328946 0 0 0 -0.072142945484003698 -0.045913616410990898 0.030599010769328333 0 0.030599010769328333 0.13110040603989281 0 0 0 0.021296697407225396 -0.098793250417371359 0.0057784253564543628 0 0.0057784253564543628 -0.00047863785468427178 0 0 0 -0.024817972068013915 0.015371366746747842 -0.0016002458291330957 0 -0.0016002458291330957 0.077022519085127347 0 0 0 0.023098471457968797 0.0079266949243419482 0.001365288222054617 0 0.001365288222054617 0.096372869903171621 0 0 0 0.026074891206878448 0.0049224957695206961 -0.0038751578250453278 0 -0.0038751578250453278 0.18273537087133285 0 0 0 0.046914466660213427 0.020433683717897388 -0.0020447437466987739 0 -0.0020447437466987739 0.1597735172705903 0 0 0 0.045051800247121909 -0.01873293612435141 0.0077953910967908935 0 0.0077953910967908935 0.014160619037347943 0 0 0 -0.0011430792717509047 -0.019724914748934563 -0.015709563698771745 0 -0.015709563698771745 0.045727285829418873 0 0 0 0.0065005927701209387 -0.02715710389282297 0.005526259664261679 0 0.005526259664261679 0.13154705368897213 0 0 0 0.02609748744903731 -0.022652986657989815 -0.013739683869467556 0 -0.013739683869467556 0.064550388313569629 0 0 0 0.010474350413894995 -0.093017821141612583 0.0054932442259050251 0 0.0054932442259050251 0.064870982724608561 0 0 0 -0.0070367096042510263 -0.0028669396843152839 0.028630321268861003 0 0.028630321268861003 0.074039492326451573 0 0 0 0.017793138160534294 -0.011445278610824783 0.0091100830130728117 0 0.0091100830130728117 0.0013855042342658663 0 0 0 -0.0025149435941393961 -0.0088489125259825219 -0.0080236195923251152 0 -0.0080236195923251152 -0.00096359567188963879 0 0 0 -0.0024531270494678736 -0.0065101064401342779 -0.025341663162052774 0 -0.025341663162052774 0.034046369878725002 0 0 0 0.0068840658596476256 -0.054476556736290795 0.0041922886559944113 0 0.0041922886559944113 -0.0029981742212088778 0 0 0 -0.014368682739374916 -0.01957750368534325 0.027147084298250412 0 0.027147084298250412 0.086819948953822168 0 0 0 0.0168106113171195 -0.0047484236230798116 -0.0069348523055832167 0 -0.0069348523055832167 -0.00099140884245618732 0 0 0 -0.0014349581163840552 -0.076944538159585962 -0.010756710843700149 0 -0.010756710843700149 0.091436701304244389 0 0 0 0.003623040786164591 -0.0053410685240495859 0.0080116896449080599 0 0.0080116896449080599 -0.00032513237986186994 0 0 0 -0.001416550225977975 -0.017837013210673769 -0.025236913486727186 0 -0.025236913486727186 0.044954277947934607 0 0 0 0.0067793161843152649 -0.016866033331916552 -0.03352204956753857 0 -0.03352204956753857 0.026892193689004529 0 0 0 0.0025065400892719247 -0.06290825769602762 -0.029563747250690414 0 -0.029563747250690414 0.0087860926801959782 0 0 0 -0.01353054125395789 -0.062423715805482005 -0.028543243657611711 0 -0.028543243657611711 0.0096271925424407101 0 0 0 -0.013199130815760352 -0.053918861978261345 -0.011259299594471642 0 -0.011259299594471642 -0.010787183928790911 0 0 0 -0.016176511476763078 -0.033280269288108011 0.092634511964025945 0 0.092634511964025945 0.026684983871039347 0 0 0 -0.0016488213542669161 -0.093005829765620385 -0.011188093158737145 0 -0.011188093158737145 -0.00056040023033498976 0 0 0 -0.023391557498988746 0.0013141802442487999 -0.021429037562103043 0 -0.021429037562103043 0.053502314532031997 0 0 0 0.013704123694070189 -0.04285524521716641 -0.009512504651540965 0 -0.009512504651540965 0.035354245680889379 0 0 0 -0.0018752498840692855 -0.03222718339175798 0.023779134336956352 0 0.023779134336956352 0.026016398726041418 0 0 0 -0.0015526961664291405 -0.036853746963904754 -0.012495099045882765 0 -0.012495099045882765 -0.0099655188223286562 0 0 0 -0.011704816446558408 -0.038641315542432775 -0.012953641454630918 0 -0.012953641454630918 -0.0079309960063518314 0 0 0 -0.011643077887196096 -0.31368997154791228 0.0084457254624210835 0 0.0084457254624210835 0.0093042347978693485 0 0 0 -0.076096434187510775 -0.17211991493180623 -0.0041942272433676264 0 -0.0041942272433676264 0.0041746232605390787 0 0 0 -0.041986322917816787 -0.058640056654466678 -0.0059619971880628319 0 -0.0059619971880628319 -0.019548882963647273 0 0 0 -0.019547234904528487 -0.065948674802999999 0.002296603066411254 0 0.002296603066411254 -0.021982364752195487 0 0 0 -0.021982759888798872 -0.022739804068366357 0.0078991846722782644 0 0.0078991846722782644 0.012225728178565098 0 0 0 -0.0026285189724503111 -0.044059017408540874 0.020037831660999553 0 0.020037831660999553 0.0304443738872213 0 0 0 -0.0034036608803298986 -0.036267674438137248 0.014843661112908607 0 0.014843661112908607 0.008129997312860883 0 0 0 -0.0070344192813190879 -0.16361861860519636 -0.016429817884495861 0 -0.016429817884495861 -0.014572948444129076 0 0 0 -0.044547891762331392 -0.12649464779979791 0.00020205404261464111 0 0.00020205404261464111 -0.0089459619707037419 0 0 0 -0.033860152442625427 0.049826544207902668 0.044491233484175663 0 0.044491233484175663 0.040139069923741388 0 0 0 0.022491403532911125 -0.13912383811803328 -0.015255663261429644 0 -0.015255663261429644 -0.0090634529314159579 0 0 0 -0.037046822762362291 -0.11423025448755927 -6.437609359713492e-05 0 -6.437609359713492e-05 -0.0063317889980544773 0 0 0 -0.030140510871403452 -0.04273048575688787 -0.007319237610607543 0 -0.007319237610607543 0.0038172280142294568 0 0 0 -0.0097283144356646312 0.033804544910886691 0.13255893778426742 0 0.13255893778426742 0.086039069248294187 0 0 0 0.029960903539795303 -0.027634493410244411 0.01187801676783496 0 0.01187801676783496 -0.0014487157865695072 0 0 0 -0.0072708022992034674 -0.03768291370525878 -0.0089799623496928938 0 -0.0089799623496928938 0.029472896492889644 0 0 0 -0.0020525043030922285 -0.09226148577310668 -0.0090448208253695456 0 -0.0090448208253695456 -0.03074822132464829 0 0 0 -0.030752426774438742 -0.086579894335221855 -0.00014712558158716773 0 -0.00014712558158716773 -0.028854384408395089 0 0 0 -0.028858569685904233 -0.1569211596363006 0.003933972394272533 0 0.003933972394272533 -0.00065918209944437756 0 0 0 -0.039395085433936217 -0.24433655807105975 -0.012325500668464648 0 -0.012325500668464648 -0.0013221331622070287 0 0 0 -0.061414672808316702 -0.094141373126763961 -0.018240532640939111 0 -0.018240532640939111 0.033293242723386407 0 0 0 -0.015212032600844472 0.0048791605116544901 -0.021739814149426384 0 -0.021739814149426384 0.03392523913210721 0 0 0 0.0097010999109404805 -0.088250356004467581 -0.017339555482972308 0 -0.017339555482972308 0.068994695696653785 0 0 0 -0.0048139150769534698 -0.05260024333126205 0.014296558983691931 0 0.014296558983691931 0.040931571255104701 0 0 0 -0.0029171680190393356 -0.06612733040213721 0.0071887048613426142 0 0.0071887048613426142 0.046797278633708132 0 0 0 -0.0048325129421072921 -0.012996948770523714 0.024705497698671822 0 0.024705497698671822 0.044882175928544529 0 0 0 0.0079713067895052035 0.0012778546864662468 0.020076925978513696 0 0.020076925978513696 0.026271264815094897 0 0 0 0.0068872798753902911 -0.023052636390692438 -0.012510085577628505 0 -0.012510085577628505 0.0038827949293476216 0 0 0 -0.0047924603653362041 -0.078338578887211935 -0.02272789464345526 0 -0.02272789464345526 0.035041773177933458 0 0 0 -0.010824201427319637 -0.095039410105416125 -0.042077448700119841 0 -0.042077448700119841 0.084700833298651079 0 0 0 -0.002584644201691258 -0.030143252150977358 -0.070188313796807428 0 -0.070188313796807428 0.13530390775325127 0 0 0 0.026290163900568479 -0.1510957909446651 0.0033304439515510348 0 0.0033304439515510348 -0.001086538603316034 0 0 0 -0.038045582386995291 -0.22280232452806908 -0.010528264282747829 0 -0.010528264282747829 -0.0017942875308676887 0 0 0 -0.056149153014734179 -0.0013596922414055707 -0.0022792196982865942 0 -0.0022792196982865942 0.0041987552586205575 0 0 0 0.00070976575430377439 -0.033523508464224749 -0.031191590356238308 0 -0.031191590356238308 0.10587616675643652 0 0 0 0.018088164573052956 -0.039162250384738639 0.012157298034986433 0 0.012157298034986433 -0.0032424289905472574 0 0 0 -0.010601169843821475 -0.13358413415896267 -0.014667887531164995 0 -0.014667887531164995 -0.019790086407535944 0 0 0 -0.038343555141624651 -0.11039568273047545 -0.00032804031650340154 0 -0.00032804031650340154 -0.013810664543729811 0 0 0 -0.03105158681855132 -0.064237877431799553 -0.00090420163083877909 0 -0.00090420163083877909 -0.0076525584969187946 0 0 0 -0.017972608982179596 -0.088089008855343626 -0.01277026306837979 0 -0.01277026306837979 0.074800226701134315 0 0 0 -0.0033221955385523399 -0.025764232281256905 -0.012205943989104739 0 -0.012205943989104739 0.052701688127895441 0 0 0 0.0067343639616597173 -0.066497324567328833 0.0013747167096369939 0 0.0013747167096369939 -0.0046533082837757278 0 0 0 -0.017787658212776131 -0.070201603271363267 0.017873204552636413 0 0.017873204552636413 0.00075521166789238592 0 0 0 -0.017361597900868331 -0.025522400639227616 -0.023555749149399396 0 -0.023555749149399396 0.060791625241534808 0 0 0 0.0088173061505767425 -0.018707426336289856 -0.02202408725712679 0 -0.02202408725712679 0.052023027781279652 0 0 0 0.0083289003612474488 -0.061101128504516267 -0.036086198287709342 0 -0.036086198287709342 0.048966382109947526 0 0 0 -0.0030336865986422268 -0.060121617937786587 -0.020829088475386753 0 -0.020829088475386753 0.040564338588068183 0 0 0 -0.0048893198374295732 -0.064853611793867547 -0.0071783507053072015 0 -0.0071783507053072015 0.032342981211635369 0 0 0 -0.0081276576455580549 -0.084512571317746657 -0.013543603214610522 0 -0.013543603214610522 0.070440369881325626 0 0 0 -0.003518050359105282 -0.00087432860671032842 0.022893135231472517 0 0.022893135231472517 0.15912840206331325 0 0 0 0.039563518364150063 0.00023270302647127039 0.00064755791479509384 0 0.00064755791479509384 0.0013398663751802431 0 0 0 0.00039314235041287837 -0.0042247719364126302 -0.019760543663267516 0 -0.019760543663267516 0.083822103371995138 0 0 0 0.019899332858895613 0.00056885782480275981 -0.0013167858233096297 0 -0.0013167858233096297 0.0018161547138486611 0 0 0 0.00059625313466249441 -0.065906552663063556 -0.0016490685650367865 0 -0.0016490685650367865 0.034954424931796985 0 0 0 -0.0077380319328166219 -0.067972104254861568 -0.0054602352630355889 0 -0.0054602352630355889 0.022537480813480955 0 0 0 -0.011358655860345162 -0.063236427263015094 -0.019177009494987449 0 -0.019177009494987449 0.032396657880692847 0 0 0 -0.0077099423455805477 -0.19630951500470795 -0.016274759646335055 0 -0.016274759646335055 0.0032728105665792706 0 0 0 -0.048259176109532176 -0.22467392326827704 -0.026002251088792172 0 -0.026002251088792172 0.0042342286578823662 0 0 0 -0.055109923652598675 -0.05969658487723057 -0.026976648466824713 0 -0.026976648466824713 0.0027019505305000691 0 0 0 -0.014248658586682623 -0.075397782769916238 -0.0068066939962963258 0 -0.0068066939962963258 0.0091152805653055557 0 0 0 -0.016570625551152671 -0.036321925294342181 -0.048826391406257025 0 -0.048826391406257025 0.075209387381817566 0 0 0 0.009721865521868836 -0.10725560874287106 0.00085419757005921609 0 0.00085419757005921609 -0.011877675415934916 0 0 0 -0.029783321039701487 -0.093631003762112891 0.00031688518496556829 0 0.00031688518496556829 -0.015428958906315026 0 0 0 -0.027264990667106977 -0.10073825295940694 -0.014131636187526206 0 -0.014131636187526206 -0.02324545897770481 0 0 0 -0.03099592798427793 -0.12637950545290896 -0.016918174663762317 0 -0.016918174663762317 -0.02132048144991236 0 0 0 -0.036924996725705331 -0.076564089087414189 -0.029886738702818105 0 -0.029886738702818105 0.00057561547283491166 0 0 0 -0.018997118403645041 -0.060931702622610939 -0.030533803716754689 0 -0.030533803716754689 0.0026140805697800751 0 0 0 -0.014579405513208021 -0.062143613703043332 -0.0048692562022185889 0 -0.0048692562022185889 -0.026953421050954492 0 0 0 -0.022274258688499457 -0.059855762119490584 -0.0067297472073689895 0 -0.0067297472073689895 -0.025875376335427372 0 0 0 -0.021432784613729494 -0.06607247435884038 0.0034290746495783523 0 0.0034290746495783523 -0.016399304722871134 0 0 0 -0.020617944770427884 -0.070520296959766235 0.00051859143313750231 0 0.00051859143313750231 -0.021747632939804511 0 0 0 -0.023066982474892684 -0.032515194821542304 0.046048022429870272 0 0.046048022429870272 0.025710093291135827 0 0 0 -0.0017012753826015636 -0.033009432903853497 -0.031613799400660669 0 -0.031613799400660669 -0.00033913000123320103 0 0 0 -0.0083371407262715636 -0.086311112622114272 -0.001170284165190682 0 -0.001170284165190682 -0.012419643113000527 0 0 0 -0.024682688933778712 -0.076701672768878237 -0.011115771671947364 0 -0.011115771671947364 -0.022904579867378892 0 0 0 -0.024901563159064281 -0.061559276583788729 -0.012119253284212421 0 -0.012119253284212421 0.016627011298309124 0 0 0 -0.011233066321369917 -0.098453354854992556 0.0003950871034923871 0 0.0003950871034923871 -0.0091557267206900939 0 0 0 -0.026902270393920673 -0.10654669493312084 -0.016297436313556467 0 -0.016297436313556467 -0.015107561649021675 0 0 0 -0.030413564145535629 -0.12056732757024399 -0.020622755289198352 0 -0.020622755289198352 0.13123713575165763 0 0 0 0.0026674520453534439 -0.069126631774954983 -0.008417928801941324 0 -0.008417928801941324 0.017915743036258189 0 0 0 -0.012802722184674181 -0.11191649514227965 -0.0076247148929226485 0 -0.0076247148929226485 -0.037318904133447933 0 0 0 -0.0373088498189319 -0.097380607899928903 -0.0025869111104571091 0 -0.0025869111104571091 -0.032468308815127578 0 0 0 -0.032462229178764124 0.0079145289064684182 0.016322293078578992 0 0.016322293078578992 0.049556000552782142 0 0 0 0.01436763236481263 -0.0085684383791045926 -0.002336651279627705 0 -0.002336651279627705 -0.014424556643627851 0 0 0 -0.0057482487556830275 -0.08623909236688565 -0.0028671816491754043 0 -0.0028671816491754043 0.012756243380651316 0 0 0 -0.018370712246558632 -0.002255376129298714 -0.036703445648916255 0 -0.036703445648916255 0.02757892750669555 0 0 0 0.0063308878443492089 -0.067048407275271935 0.00045180632561426202 0 0.00045180632561426202 0.035241749092873462 0 0 0 -0.0079516645455996078 -0.075208011999840729 -0.015884312219762255 0 -0.015884312219762255 0.038397853151295125 0 0 0 -0.009202539712136408 -0.19112499928839358 -0.0027645320473543393 0 -0.0027645320473543393 -0.015296449985615568 0 0 0 -0.051605362318502282 -0.14649200762791542 -0.0075092376974626937 0 -0.0075092376974626937 -0.012673444003345954 0 0 0 -0.039791362907815347 -0.027517573456327632 -0.026882020592961325 0 -0.026882020592961325 0.048089210572815899 0 0 0 0.0051429092791220876 -0.060017511649623961 0.0070741629155772557 0 0.0070741629155772557 0.02316281996045523 0 0 0 -0.0092136729222921706 -0.067406676530653284 -0.010117178361437482 0 -0.010117178361437482 0.011342114092645936 0 0 0 -0.014016140609501846 -0.11694873179035564 -0.0024745219230475068 0 -0.0024745219230475068 0.0075945237567452972 0 0 0 -0.027338552008402628 -0.10634454627926893 0.021378973658535694 0 0.021378973658535694 0.00089577929207740326 0 0 0 -0.026362191746797992 -0.070664227446487787 -0.0092148574971636921 0 -0.0092148574971636921 0.035197159167732084 0 0 0 -0.0088667670696889467 -0.066953702506198434 -0.026266997141335707 0 -0.026266997141335707 0.016398227337949822 0 0 0 -0.012638868792062191 -0.069996967645479941 -0.0051194377334810581 0 -0.0051194377334810581 0.013475274815612198 0 0 0 -0.014130423207466908 -0.057619153166421855 0.0059800644586181853 0 0.0059800644586181853 0.029120136359952527 0 0 0 -0.0071247542016173344 -0.069667882810681245 -0.029185483218744146 0 -0.029185483218744146 0.019891545834489044 0 0 0 -0.01244408424404804 0.045214379098339808 0.021250892409761052 0 0.021250892409761052 0.12209727578824775 0 0 0 0.041827913721646903 -0.079221916719345586 0.0005843251121669113 0 0.0005843251121669113 0.0056074474453392531 0 0 0 -0.018403617318501569 -0.055463045351153539 0.01429304155603677 0 0.01429304155603677 -0.0033585268593174789 0 0 0 -0.014705393052618199 -0.026803493840794168 -0.019313627227895092 0 -0.019313627227895092 0.066985631136287527 0 0 0 0.01004553432387334 -0.013436958314456016 -0.018844804153484551 0 -0.018844804153484551 0.047770704045963397 0 0 0 0.0085834364328767343 -0.15394678187123786 -0.025833476393540056 0 -0.025833476393540056 0.041688970892000111 0 0 0 -0.028064452744809482 -0.0070368482679393426 -0.020696346370935814 0 -0.020696346370935814 -0.016643551264496265 0 0 0 -0.0059200998831088966 -0.14798825335231763 0.005601264287661889 0 0.005601264287661889 0.0024316348398534249 0 0 0 -0.036389154628116066 -0.24116346225590488 -0.023517668229585509 0 -0.023517668229585509 0.0073112042959156687 0 0 0 -0.05846306448999733 -0.14182320602921394 -0.0015453523685905468 0 -0.0015453523685905468 0.001008521883454877 0 0 0 -0.035203671036439718 -0.23626855189142748 -0.0035920730727200811 0 -0.0035920730727200811 0.003888976299861735 0 0 0 -0.058094893897891464 -0.12638902723855192 -0.0073973001075858863 0 -0.0073973001075858863 -0.01781837498171171 0 0 0 -0.036051850555065906 -0.16145766350796825 -0.0021387706450646323 0 -0.0021387706450646323 -0.021016722924122343 0 0 0 -0.045618596608022643 -0.077419700098605992 -0.02041748952102998 0 -0.02041748952102998 0.052089687944473911 0 0 0 -0.0063325030385330341 -0.071789553904010012 -0.030970245514795505 0 -0.030970245514795505 0.065730799019972391 0 0 0 -0.0015146887210094051 -0.020551373434505665 -0.0059715066700138375 0 -0.0059715066700138375 0.073235040922550509 0 0 0 0.013170916872011273 -0.016282464430976085 -0.00029468512311697781 0 -0.00029468512311697781 0.14270277766602701 0 0 0 0.031605078308762746 -0.032662464809779593 0.0066192501865078579 0 0.0066192501865078579 0.047064530862230058 0 0 0 0.0036005165131126199 -0.024850114643347604 0.0025511667984804975 0 0.0025511667984804975 0.12384530273197425 0 0 0 0.024748797022156682 -0.035548177652910184 -0.012498627392693695 0 -0.012498627392693695 0.063301285075721303 0 0 0 0.0069382768557028074 -0.072545291653721797 -0.0050683411003371037 0 -0.0050683411003371037 0.014335155353482636 0 0 0 -0.014552534075059815 -0.052014904305134418 -0.03162822277024796 0 -0.03162822277024796 0.055096666347482504 0 0 0 0.00077044051058700047 -0.073975747998142188 -0.033273241640180216 0 -0.033273241640180216 0.050225963845982213 0 0 0 -0.005937446038039973 -0.071462121941239021 -0.0047717963947985879 0 -0.0047717963947985879 0.063466553312126611 0 0 0 -0.0019988921572781058 -0.14212319002921237 0.021212642319935339 0 0.021212642319935339 -0.0026049306686015683 0 0 0 -0.036182030174453317 -0.084585128932827755 -0.012682332918063449 0 -0.012682332918063449 0.064928464587111739 0 0 0 -0.0049141660864289588 -0.0068737214630519849 -0.014390732747309842 0 -0.014390732747309842 0.19379801045484546 0 0 0 0.046731072247948369 0.051794438594253256 -0.020939136633718027 0 -0.020939136633718027 0.10587763886117818 0 0 0 0.039418019363857859 0.0018687370653718838 -0.019482846996671799 0 -0.019482846996671799 0.040579743712986449 0 0 0 0.01061212019458968 -0.26242547797664684 -0.017818601245108034 0 -0.017818601245108034 0.0059139558061830355 0 0 0 -0.064127880542615923 -0.15500426526101505 0.0054439570936366533 0 0.0054439570936366533 0.0015939773269061375 0 0 0 -0.038352571983527248 -0.087255195786367645 -0.011995776348225389 0 -0.011995776348225389 0.070469779919465514 0 0 0 -0.0041963539667255606 -0.092399600706919882 0.049033206929362194 0 0.049033206929362194 -0.0068111544165700977 0 0 0 -0.02480268878087255 -0.064377878295491575 0.04560899836463661 0 0.04560899836463661 0.002529419720571191 0 0 0 -0.015462114643729929 -0.03703162615189437 -0.036744791482351657 0 -0.036744791482351657 0.026410610332095352 0 0 0 -0.00265525395494981 -0.028424252816486365 -0.034276853345232672 0 -0.034276853345232672 0.02927973477723227 0 0 0 0.00021387049018644822 -0.034146101705653575 -0.021149996746548938 0 -0.021149996746548938 0.0750696977646097 0 0 0 0.01023089901473917 -0.021334342586112331 0.010401998895750388 0 0.010401998895750388 0.000771556111345717 0 0 0 -0.0051406966186924308 -0.084659560812495302 0.00052855001712743578 0 0.00052855001712743578 -0.013190038124109238 0 0 0 -0.024462399734151135 -0.082664479093213117 -0.0088257399958943262 0 -0.0088257399958943262 -0.022828002956207405 0 0 0 -0.026373120512355127 -0.040116212846635239 -0.041000853418378336 0 -0.041000853418378336 0.013926467359536981 0 0 0 -0.0065474363717745662 -0.041012147151810785 -0.040630108182607483 0 -0.040630108182607483 0.013665239184375455 0 0 0 -0.006836726991858777 -0.043683632436224709 -0.039120911864381824 0 -0.039120911864381824 0.010559084972136201 0 0 0 -0.0082811368660222345 -0.046430414155536948 -0.043368892078736621 0 -0.043368892078736621 0.0098100996240240157 0 0 0 -0.009155078632878233 -0.059403770946639262 0.059590835708588141 0 0.059590835708588141 -0.00017114550412578033 0 0 0 -0.014893729112691351 -0.047316068291328103 0.055000459948647329 0 0.055000459948647329 0.0031701022117406105 0 0 0 -0.011036491519896652 -0.090700499423778683 0.0019127687443442419 0 0.0019127687443442419 -0.023860436003348327 0 0 0 -0.028640233856781758 -0.10272181010089428 -0.014614330232998889 0 -0.014614330232998889 -0.030537581672805833 0 0 0 -0.033314847943425027 -0.12723381918986076 -0.017631632141506676 0 -0.017631632141506676 0.010958710168563424 0 0 0 -0.029068777255324307 -0.2122102347196887 0.036061607509400961 0 0.036061607509400961 0.016690110370296551 0 0 0 -0.048880031087348064 -0.11661293487095978 0.0078352760462568477 0 0.0078352760462568477 0.0022919119551191858 0 0 0 -0.028580255728960141 -0.055985982257464019 0.006077668505424549 0 0.006077668505424549 0.010957546425549629 0 0 0 -0.011257108957978594 -0.0071448045059349652 -0.013723718852527822 0 -0.013723718852527822 0.0093075475607338198 0 0 0 0.0005406857636997553 -0.17464403611788631 -0.025988350353323871 0 -0.025988350353323871 0.0020330552972543936 0 0 0 -0.043152745205157925 -0.21914673355538505 -0.021370049567848919 0 -0.021370049567848919 -0.0034913470402408442 0 0 0 -0.055659520148906474 -0.04369998461250419 7.9632660248876892e-05 0 7.9632660248876892e-05 -0.022257267287995028 0 0 0 -0.016489312975124806 -0.055137718832198868 0.010207701342911907 0 0.010207701342911907 0.089690247726277983 0 0 0 0.0086381322235198066 -0.1525696708529426 -0.0034415081060534813 0 -0.0034415081060534813 0.00069423592510009513 0 0 0 -0.037968858731960653 -0.26635554216970037 0.00498502805669232 0 0.00498502805669232 0.00074599400831240614 0 0 0 -0.066402387040346844 -0.095313799316128239 -0.0092375508163480835 0 -0.0092375508163480835 0.011862292753638926 0 0 0 -0.020862876640622335 -0.13845280284533876 -0.022561192460284804 0 -0.022561192460284804 -0.015174857665171154 0 0 0 -0.038406915127627464 -0.10842767668267819 -0.022146401799132291 0 -0.022146401799132291 -0.010118247991613045 0 0 0 -0.029636481168572863 -0.013894526812415653 0.11234936509705597 0 0.11234936509705597 0.22108164209014225 0 0 0 0.051796778819431455 -0.20673590280246601 -0.0097228303927608395 0 -0.0097228303927608395 0.00016391746823699038 0 0 0 -0.051642996333557241 -0.14100682690417543 0.0031783837863315761 0 0.0031783837863315761 0.00057349905151954372 0 0 0 -0.035108331963164 -0.040338521270019745 -0.016438591622784979 0 -0.016438591622784979 -0.011321185150633184 0 0 0 -0.012914926605163191 -0.045028099817849998 -0.017662519623465413 0 -0.017662519623465413 -0.0099014937323269603 0 0 0 -0.013732398387544253 -0.063486947947663672 0.0049412852760033418 0 0.0049412852760033418 0.050275470759272273 0 0 0 -0.0033028692970978246 -0.057683592583600181 -0.012290304004240488 0 -0.012290304004240488 0.0079234775783379452 0 0 0 -0.012440028751315585 -0.042363113451671021 0.016080015500366113 0 0.016080015500366113 0.0093746520635990885 0 0 0 -0.0082471153470180039 -0.023264479384644154 0.03461384826196312 0 0.03461384826196312 0.20522688548394274 0 0 0 0.045490601524824648 -0.11477782935662406 0.006050138426434537 0 0.006050138426434537 0.0043649980212656647 0 0 0 -0.027603207833839565 -0.068116410152941398 -0.0067812941731310271 0 -0.0067812941731310271 0.0089676425603116144 0 0 0 -0.014787191898157453 0.042855486958152111 0.019183336832564117 0 0.019183336832564117 0.079792529274246959 0 0 0 0.030662004058099601 -0.087046345823748109 -0.013494385487276772 0 -0.013494385487276772 -0.0036880572013779853 0 0 0 -0.022683600756281577 -0.3189452160414436 -0.00038215215568321304 0 -0.00038215215568321304 -1.9023740900570019e-05 0 0 0 -0.079741059945585946 -0.17761947632306441 -0.001422610650318254 0 -0.001422610650318254 -0.00030572916274451689 0 0 0 -0.044481301371452175 -0.084268023742237991 -0.0066529479283259276 0 -0.0066529479283259276 0.081592630525236687 0 0 0 -0.00066884830425035027 -0.13939369657811077 -0.018093511043514136 0 -0.018093511043514136 -0.0084976302909595403 0 0 0 -0.036972831717267569 -0.16306540191621038 -0.025705762955709456 0 -0.025705762955709456 -0.0044552950880100001 0 0 0 -0.041880174251055079 0.0098829868278546285 0.029778592469313386 0 0.029778592469313386 0.050083140967807693 0 0 0 0.014991531948915587 -0.058927971893577569 -0.013783769352750705 0 -0.013783769352750705 -0.00033651904188936044 0 0 0 -0.014816122733866566 -0.055674980653178399 -0.02234036246634058 0 -0.02234036246634058 0.018521716923298903 0 0 0 -0.0092883159324698844 -0.023576040606188453 0.021362241245952811 0 0.021362241245952811 0.14497218334653894 0 0 0 0.030349035685087067 -0.018797757437689633 -0.007326740686783061 0 -0.007326740686783061 0.0015308334197081663 0 0 0 -0.0043167310044953666 -0.083883861603035167 -0.032130428121506766 0 -0.032130428121506766 0.050717846106571818 0 0 0 -0.0082915038741158686 -0.051614528876729598 -0.018451201523087005 0 -0.018451201523087005 0.060240322360195164 0 0 0 0.0021564483708663706 -0.071586368791687616 -0.0086872110816461623 0 -0.0086872110816461623 0.021677370181810873 0 0 0 -0.012477249652469213 -0.049045779191072114 0.012849495208143047 0 0.012849495208143047 -0.0014251977433099583 0 0 0 -0.01261774423359574 -0.022824385033152317 -0.023110073413781462 0 -0.023110073413781462 0.074873280372571127 0 0 0 0.013012223834854786 -0.078990140466358133 -0.00013696140110432131 0 -0.00013696140110432131 -0.0036908524144931565 0 0 0 -0.020670248220212815 -0.010727102802747066 -0.00050265781887431915 0 -0.00050265781887431915 0.071713474745925765 0 0 0 0.015246592985794685 -0.1307824414289071 0.0047232212104008717 0 0.0047232212104008717 0.000744920810284877 0 0 0 -0.032509380154655543 -0.10135726918117965 -0.026047271358245257 0 -0.026047271358245257 0.034784064811067106 0 0 0 -0.016643301092528096 -0.11461938494203244 0.0046400112602047114 0 0.0046400112602047114 -0.0043551957219054027 0 0 0 -0.029743645165984461 -0.0903601366812119 -0.012942211744388255 0 -0.012942211744388255 0.0018220444816279269 0 0 0 -0.022134523049895938 -0.14149359421881669 0.0036600990975031861 0 0.0036600990975031861 -0.00079259671756479189 0 0 0 -0.035571547734095349 -0.12937035887183312 0.0054123271631736358 0 0.0054123271631736358 4.0223434319391904e-05 0 0 0 -0.032332533859378454 -0.10072864750993177 0.063168585932727783 0 0.063168585932727783 -0.0010193182965698711 0 0 0 -0.025436991451625202 -0.083567469584331172 -0.0069247703397113166 0 -0.0069247703397113166 -0.027934658435289049 0 0 0 -0.02787553200490505 -0.091426546421086829 -0.015191126027802836 0 -0.015191126027802836 -0.026985655396404722 0 0 0 -0.029603050454372892 -0.086238594275048847 0.0027087794165451019 0 0.0027087794165451019 -0.018610738220834814 0 0 0 -0.026212333123970918 -0.083355218117931118 -0.00097300813297861556 0 -0.00097300813297861556 -0.022406529528497365 0 0 0 -0.026440436911607117 -0.064643978887235443 -0.016485019120427241 0 -0.016485019120427241 0.027896309816036635 0 0 0 -0.009186917267799688 -0.047676983552379738 -0.047021493448108867 0 -0.047021493448108867 0.068789481104553934 0 0 0 0.0052781243880435594 -0.067091501673383638 -0.033316929197818562 0 -0.033316929197818562 0.026069778189942411 0 0 0 -0.01025543087086029 -0.068088224937404407 -0.02016888141127593 0 -0.02016888141127593 0.047980758442607296 0 0 0 -0.0050268666236992221 -0.064588831375633954 -0.02725997654554993 0 -0.02725997654554993 0.023012521278981568 0 0 0 -0.010394077524163076 -0.042112820643321336 -0.0004741357928718555 0 -0.0004741357928718555 0.073140891190988322 0 0 0 0.0077570176369167188 -0.041806643464705029 -0.014784289798436656 0 -0.014784289798436656 0.036136436371065228 0 0 0 -0.0014175517734099086 -0.17935429709411543 0.0011814035225556673 0 0.0011814035225556673 0.00087414713305067338 0 0 0 -0.044620037490266273 -0.32976451826812792 -0.004608403211051792 0 -0.004608403211051792 0.0054252412730064759 0 0 0 -0.081084819248780193 -0.03167765852789696 -0.013588115037751619 0 -0.013588115037751619 0.040946455167115925 0 0 0 0.0023171991598047309 -0.034480792543918115 -0.0019298814267321718 0 -0.0019298814267321718 0.087136005862251231 0 0 0 0.013163803329583251 -0.10582774829630517 0.0024542747647737229 0 0.0024542747647737229 0.013041988341200739 0 0 0 -0.023196439988776102 -0.051227946030565574 0.0021850248627388194 0 0.0021850248627388194 -0.018239864516939659 0 0 0 -0.017366952636876307 -0.073807772463318266 -0.014383728594703753 0 -0.014383728594703753 -0.0081045418253480328 0 0 0 -0.020478078572166568 -0.055969717079318922 -0.0052460848909046762 0 -0.0052460848909046762 -0.016457792626651126 0 0 0 -0.018106877426492484 -0.040023909186616781 -0.066488797184478018 0 -0.066488797184478018 0.13355073973313999 0 0 0 0.023381707636630798 -0.13829694450154822 -0.00092981798461942711 0 -0.00092981798461942711 -0.0062852057750682616 0 0 0 -0.036145537569154146 -0.13032916834028827 -0.0021071161300011965 0 -0.0021071161300011965 -0.0035282623390645307 0 0 0 -0.033464357669838213 -0.16787379317243983 -0.0092912902384786437 0 -0.0092912902384786437 -0.0036462429875611241 0 0 0 -0.042880009040000222 -0.19061984080596081 -0.011081522363121264 0 -0.011081522363121264 -0.0095526814208062305 0 0 0 -0.050043130556691739 -0.14553823955925649 -0.010981368426316741 0 -0.010981368426316741 0.001341988503320124 0 0 0 -0.036049062763984008 -0.040037567736916468 0.10737133991743231 0 0.10737133991743231 0.13881834308279695 0 0 0 0.02469519383647012 -0.0092892759110659862 -0.020205021797801925 0 -0.020205021797801925 0.043698705713922203 0 0 0 0.0086023574507139156 -0.01562083154505034 -0.010996500199739301 0 -0.010996500199739301 -0.00011463988606785422 0 0 0 -0.0039338678577795485 -0.086950075145512395 0.0013740174012716756 0 0.0013740174012716756 -0.0043931726430278123 0 0 0 -0.022835811947135042 -0.08665516923415266 -0.0094648707715914715 0 -0.0094648707715914715 0.059499775637657265 0 0 0 -0.0067888483991238313 -0.11749707854120119 0.0040959230619942756 0 0.0040959230619942756 -0.00078979100388698598 0 0 0 -0.029571717386272081 -0.0045782800072421415 0.038704374516002282 0 0.038704374516002282 0.04177338725532076 0 0 0 0.0092987768120197378 -0.055967350229973976 0.0043590788685531961 0 0.0043590788685531961 -0.018346575816403386 0 0 0 -0.018578481511594341 -0.044138170430192344 -0.022601108976318895 0 -0.022601108976318895 -0.0081793334610452267 0 0 0 -0.013079375972809379 0.031822044932084612 -0.087814949672865378 0 -0.087814949672865378 0.10995562962280127 0 0 0 0.035444418638721484 -0.2518851279250498 0.02459742538211529 0 0.02459742538211529 0.0018631734486445062 0 0 0 -0.062505488619101213 -0.044490071852261351 0.0019361009322130238 0 0.0019361009322130238 -0.018213262257860009 0 0 0 -0.015675833527530339 -0.095881373285068586 -0.0021122519231154364 0 -0.0021122519231154364 -0.024100353908647371 0 0 0 -0.029995431798428996 -0.10699536556168558 -0.0079065464087851936 0 -0.0079065464087851936 -0.029550256146466451 0 0 0 -0.034136405427038011 -0.050652842227566337 0.010794040629595349 0 0.010794040629595349 0.018704931559975695 0 0 0 -0.0079869776668976562 -0.14264701819148856 0.0026972414545755885 0 0.0026972414545755885 0.0024949488289416344 0 0 0 -0.035038017340636718 -0.23345640719908703 -0.013535236216845048 0 -0.013535236216845048 0.0095123328155531928 0 0 0 -0.055986018595883612 -0.010205862080734374 0.031098636478529507 0 0.031098636478529507 0.090960245749180046 0 0 0 0.020188595917111751 -0.051987249589861229 -0.017840181714873227 0 -0.017840181714873227 -0.0032718931412603069 0 0 0 -0.013814785682780162 -0.038504245030858059 0.0045341151790548317 0 0.0045341151790548317 0.077436767109730908 0 0 0 0.0097331305197181639 -0.04153858232365007 -0.026032591423464667 0 -0.026032591423464667 0.024646609401230646 0 0 0 -0.004222993230604849 -0.050656333251508145 0.0033363736614505229 0 0.0033363736614505229 0.039724241491888079 0 0 0 -0.0027330229399050165 -0.056046461494792837 0.003709078746109944 0 0.003709078746109944 0.0075201453133087771 0 0 0 -0.012131579045371019 -0.046298619978400998 -0.00099242856498970699 0 -0.00099242856498970699 -0.023071170804327749 0 0 0 -0.017342447695682186 -0.077567114099867718 -0.00087223097545484352 0 -0.00087223097545484352 0.0029875999005723047 0 0 0 -0.01864487854982386 -0.062616423556735537 -0.030455905808240598 0 -0.030455905808240598 0.16503513508156775 0 0 0 0.025604677881208043 -0.065300947576581919 -0.031277573201316307 0 -0.031277573201316307 0.1533216789275969 0 0 0 0.022005182837753746 -0.048666943866002343 -0.028701766148166552 0 -0.028701766148166552 0.00077692263434681053 0 0 0 -0.011972505307913828 -0.040909987558998329 -0.026327807309160067 0 -0.026327807309160067 1.4413828939296991e-05 0 0 0 -0.010223893432514841 -0.022858530416241418 0.044880167829101314 0 0.044880167829101314 0.052396563290385778 0 0 0 0.007384508218536201 -0.03207694460152033 0.043689255228563484 0 0.043689255228563484 0.051036094325790593 0 0 0 0.0047397874310675103 -0.023778865496895119 0.053361870160079039 0 0.053361870160079039 0.029279051917510124 0 0 0 0.0013750466051538623 0.012606160806166944 0.052724009469677813 0 0.052724009469677813 0.038822030486466375 0 0 0 0.012857047823158441 -0.048987263622145998 0.0024561292236379953 0 0.0024561292236379953 -0.016329291410810944 0 0 0 -0.016329138758239232 -0.035795333202988833 0.0043633317544569117 0 0.0043633317544569117 0.099649884047713244 0 0 0 0.015963637711181089 -0.044409703162865799 0.0010462202309456103 0 0.0010462202309456103 0.064173916476144122 0 0 0 0.0049410533283196223 -0.10051409350364438 -0.021977591961758414 0 -0.021977591961758414 -0.0015149283796631607 0 0 0 -0.025507255470826884 -0.11597958984077478 -0.0093451239288063759 0 -0.0093451239288063759 -0.00069489157313284977 0 0 0 -0.029168620353476837 -0.18770373685725428 0.020487181411136923 0 0.020487181411136923 -0.001594679407756594 0 0 0 -0.047324604066252718 -0.032882844920619651 0.029011521260057613 0 0.029011521260057613 0.04318926371407808 0 0 0 0.0025766046983645916 -0.027349371176001232 0.031923650053720894 0 0.031923650053720894 0.055594644879336741 0 0 0 0.0070613184258339068 -0.050455484038901655 0.0047096692173283078 0 0.0047096692173283078 -0.0097776280816021556 0 0 0 -0.015058278030125952 -0.051811269517702513 0.0032976673308553438 0 0.0032976673308553438 -0.018564384466212024 0 0 0 -0.017593913495978632 -0.21213846836965758 -0.017711142695093308 0 -0.017711142695093308 -0.0070873982979110517 0 0 0 -0.054806466666892234 -0.14192306553237899 0.0037035212765789416 0 0.0037035212765789416 -0.0016300209978893088 0 0 0 -0.03588827163256713 -0.13034789565543753 0.005290996271138766 0 0.005290996271138766 -0.0030051888842473617 0 0 0 -0.033338271134921202 -0.019642740960376326 0.028884568834051105 0 0.028884568834051105 0.10176286624861852 0 0 0 0.020530031322060438 -0.04032600753660498 -0.011903188717756197 0 -0.011903188717756197 0.0032139887764923714 0 0 0 -0.0092780046900282631 -0.050565256111567022 -0.0035478937940723273 0 -0.0035478937940723273 -0.020989086235313151 0 0 0 -0.017888585586720043 -0.036834759697277182 0.0011774414971640543 0 0.0011774414971640543 -0.010488857506457269 0 0 0 -0.011830904300933621 -0.079424341886157879 -0.03614311246194768 0 -0.03614311246194768 0.0061447663921447848 0 0 0 -0.018319893873503301 -0.091830090581594706 -0.020378325738308223 0 -0.020378325738308223 -0.00042834567783112121 0 0 0 -0.023064609064856426 -0.052867429745972541 -0.018758089322735039 0 -0.018758089322735039 0.038328077485128453 0 0 0 -0.0036348380652111052 -0.022625958353699779 0.02333260618597182 0 0.02333260618597182 0.026203612123126413 0 0 0 0.00089441344235667575 -0.10885951952424022 0.07230011684732629 0 0.07230011684732629 0.0039252935671091338 0 0 0 -0.026233556489282939 -0.12713827748338735 -0.0043436707374104877 0 -0.0043436707374104877 0.0049029184272212367 0 0 0 -0.030558839764041557 -0.20556407941666988 0.0061924943594649645 0 0.0061924943594649645 0.013610041204572543 0 0 0 -0.04798850955302425 -0.0059672950058888841 -0.0039160280413042536 0 -0.0039160280413042536 -0.011646889450188214 0 0 0 -0.0044035461140192744 -0.011277268423393216 -0.0094819087416235792 0 -0.0094819087416235792 -0.0089102464245653934 0 0 0 -0.0050468787119896663 -0.11651265676873196 0.0053694882217275725 0 0.0053694882217275725 -0.00047545718678697335 0 0 0 -0.02924702848887973 -0.10319935886985301 0.0032460290223861737 0 0.0032460290223861737 -0.0019111095379557297 0 0 0 -0.026277617101952176 -0.066487376480305241 -0.0094122176442400854 0 -0.0094122176442400854 0.022615205055620757 0 0 0 -0.010968042856171104 -0.141757002430484 0.0083461463398016508 0 0.0083461463398016508 0.0028384606965755621 0 0 0 -0.034729635433477096 -0.15279624248723325 -0.024167287242001671 0 -0.024167287242001671 -0.008877662796657762 0 0 0 -0.040418476320972799 -0.0011957475698487785 0.0019029170215817404 0 0.0019029170215817404 -0.0023969371842466952 0 0 0 -0.00089817118852389616 -0.080449288122565354 0.080650452577135545 0 0.080650452577135545 0.010406454681624044 0 0 0 -0.017510708360235272 -0.052411002836841983 0.0028227853623861328 0 0.0028227853623861328 -0.017470964630068878 0 0 0 -0.017470491866727715 0.021583554597965793 0.022037234957563712 0 0.022037234957563712 0.091448501741864474 0 0 0 0.028258014084957428 0.015368886124718512 0.046396019073525668 0 0.046396019073525668 0.14117203863890984 0 0 0 0.039135231190907116 -0.19141054500571106 0.024471971210813126 0 0.024471971210813126 0.036165886691326199 0 0 0 -0.038811164578596104 -0.015514421659938549 0.047996206325428739 0 0.047996206325428739 0.14657424056225671 0 0 0 0.032764954725579498 -0.00050990042074836039 0.040401151143737109 0 0.040401151143737109 0.098507938415819951 0 0 0 0.024499509498767891 -0.092307797123582475 0.0037345065460653026 0 0.0037345065460653026 0.0020264110201572427 0 0 0 -0.022570346525856322 -0.070983348674737309 -0.0011493361775560471 0 -0.0011493361775560471 -0.0039418246908313678 0 0 0 -0.018731293341392154 -0.1609166109202087 0.054698401688143661 0 0.054698401688143661 0.017938156688882323 0 0 0 -0.03574461355783165 -0.085524095680838547 -0.023906620950254337 0 -0.023906620950254337 0.075362992541510715 0 0 0 -0.0025402757848319857 -0.043828368758221187 0.028283041324890318 0 0.028283041324890318 0.155281444348465 0 0 0 0.027863268897560953 -0.056876999528251843 -0.029995057415860144 0 -0.029995057415860144 0.0015800637234993919 0 0 0 -0.01382423395118812 -0.14454320826477227 -0.0079135369690800927 0 -0.0079135369690800927 0.0051736445889190297 0 0 0 -0.034842390918963434 -0.24620429816576239 0.015576714255161883 0 0.015576714255161883 0.015989711383896044 0 0 0 -0.057553646695466476 -0.054644568932823434 0.027630017836080434 0 0.027630017836080434 -0.0075495737848845224 0 0 0 -0.015548535679426712 -0.030479111833599193 -0.030016294355876605 0 -0.030016294355876605 0.046222459206488153 0 0 0 0.0039358368432220736 -0.054051304646041243 -0.021308022712483415 0 -0.021308022712483415 0.029159356191350128 0 0 0 -0.0062229871136728621 -0.013605731124438684 0.024287835486424419 0 0.024287835486424419 0.028574688682464572 0 0 0 0.0037422393895064909 -0.14018976908635372 -0.022794189959404427 0 -0.022794189959404427 -0.015586972446429224 0 0 0 -0.038944185383195773 -0.12986403795775098 0.0033003600054627713 0 0.0033003600054627713 0.0036387269954303858 0 0 0 -0.031556327740580134 -0.17848616704323539 -0.009244104636432382 0 -0.009244104636432382 0.012120723297417351 0 0 0 -0.041591360936454443 -0.049481681086547241 -0.035822899927803242 0 -0.035822899927803242 0.063173287001995204 0 0 0 0.0034229014788619561 -0.10615700106924349 -0.0004879139880915595 0 -0.0004879139880915595 0.0059953845923954585 0 0 0 -0.025040404119212031 -0.066802470063514446 0.0018468988115651437 0 0.0018468988115651437 0.12323789893318561 0 0 0 0.014108857217417782 -0.04725973587755021 -0.0015973987779867311 0 -0.0015973987779867311 -0.015751679414278158 0 0 0 -0.015752853822957089 -0.042943593731715302 -0.016204256700149966 0 -0.016204256700149966 0.024086277210838114 0 0 0 -0.0047143291302192969 -0.15049581552064806 0.0022969589008975388 0 0.0022969589008975388 0.0027992148997167399 0 0 0 -0.03692415015523276 -0.25080240656670511 -0.010435118680312938 0 -0.010435118680312938 0.0064496018784352405 0 0 0 -0.061088201172067536 -0.10314416537584116 -0.025818397224468326 0 -0.025818397224468326 0.0089210940275464556 0 0 0 -0.023555767837073596 -0.063282780784275322 -0.031892003545987452 0 -0.031892003545987452 0.044125401330449732 0 0 0 -0.0047893448634564184 -0.050088663790504473 -0.025007759618281111 0 -0.025007759618281111 0.079285840008206043 0 0 0 0.0072992940544254203 -0.085866878137831809 0.00027864819251530171 0 0.00027864819251530171 0.0064800078229631519 0 0 0 -0.019846717578717116 -0.058739802391906792 -0.027574376734188499 0 -0.027574376734188499 0.0065656131960204478 0 0 0 -0.013043547298971558 -0.08018454359486929 -0.03163969714599657 0 -0.03163969714599657 0.0017667284021573026 0 0 0 -0.019604453798178136 -0.09951893844576884 0.0005208649550917932 0 0.0005208649550917932 0.0057643392037612928 0 0 0 -0.023438649810501901 -0.056706205601129545 -0.030885210548086239 0 -0.030885210548086239 0.0022585478101185275 0 0 0 -0.013611914447752727 -0.048817344491392925 7.7521954041302006e-05 0 7.7521954041302006e-05 -0.022104788543236501 0 0 0 -0.017730533258657356 -0.14905822057136733 -0.00036827091266689038 0 -0.00036827091266689038 0.0020701483881814253 0 0 0 -0.036747018045796526 -0.25900994603777205 -0.00044433327111470522 0 -0.00044433327111470522 0.0030288152941010393 0 0 0 -0.063995282685917698 -0.061712400553172037 -0.012226677274611797 0 -0.012226677274611797 -0.0038164144818721435 0 0 0 -0.016382203758760733 0.0060871002348867331 0.022360180499343407 0 0.022360180499343407 0.11250583147401794 0 0 0 0.029648232927226015 -0.0058373340598079082 0.029948843914437973 0 0.029948843914437973 0.086194813514844704 0 0 0 0.020089369863759199 -0.043093740949875725 -0.0096393217636979531 0 -0.0096393217636979531 -0.0035144756025529134 0 0 0 -0.011652054138107326 -0.0076467923987069142 0.017527842497883129 0 0.017527842497883129 0.13927429958938475 0 0 0 0.032906876797669682 -0.023035921648127622 -0.023869416537316467 0 -0.023869416537316467 0.024392361429795284 0 0 0 0.00033910994541691553 -0.070348138314053288 -0.026755387939292857 0 -0.026755387939292857 0.021840562759981252 0 0 0 -0.012126893888517953 0.0046998080631174277 -0.0026056834549199352 0 -0.0026056834549199352 0.098573017430529042 0 0 0 0.02581820637341159 -0.0043635800485243292 -0.00026582917671652551 0 -0.00026582917671652551 0.18399139984405566 0 0 0 0.044906954948882805 -0.17317581166550522 -0.01350957529225788 0 -0.01350957529225788 0.033678313786148273 0 0 0 -0.034874374469839264 -0.099248349097632096 0.0019594964635667542 0 0.0019594964635667542 -0.0037761028539498587 0 0 0 -0.025756112987895499 -0.050349787374111957 0.0078242007448464691 0 0.0078242007448464691 -0.0022143758713288521 0 0 0 -0.013141040811360191 -0.11066455924775598 0.060889966957727748 0 0.060889966957727748 -0.0052429485827243383 0 0 0 -0.028976876957619968 -0.017762574294168165 -0.032600084030696808 0 -0.032600084030696808 0.029172464308549362 0 0 0 0.0028524725035952159 -0.04469903618384416 0.0004055934977268016 0 0.0004055934977268016 -0.019309433512389378 0 0 0 -0.016002117424058385 -0.087727514769220513 -0.0024514685569456407 0 -0.0024514685569456407 0.019900851637422098 0 0 0 -0.016956665782949673 0.011276626375679832 0.018131966421714153 0 0.018131966421714153 0.087470826200797269 0 0 0 0.024686863144119275 -0.06965772315637922 -0.011016854585117549 0 -0.011016854585117549 -0.022551340031846934 0 0 0 -0.023052265797056534 -0.039866974617469478 -0.010463539210054107 0 -0.010463539210054107 0.0099299363155644083 0 0 0 -0.0074842595754762847 -0.030251184852027116 -0.017844614189959196 0 -0.017844614189959196 0.012725403762919599 0 0 0 -0.0043814452722768654 -0.007835030333338433 0.0042783864186838327 0 0.0042783864186838327 0.057029362189586541 0 0 0 0.012298582964062055 0.0007142157417052708 -0.00080715462494207468 0 -0.00080715462494207468 0.095365024273886601 0 0 0 0.024019810003897857 0.00095621119855687775 -0.005697842877140924 0 -0.005697842877140924 0.17287311331666444 0 0 0 0.043457331128805343 -0.012183799548799341 -0.010725302161460837 0 -0.010725302161460837 0.11384750898924009 0 0 0 0.025415927360110106 -0.041070639098280196 0.023109038440315151 0 0.023109038440315151 0.048774684892596662 0 0 0 0.001926011448579127 -0.021968400086927214 -0.032739894268694808 0 -0.032739894268694808 -0.00010189539883187493 0 0 0 -0.0055175738714397515 -0.0021081489925623073 -0.062214644837937413 0 -0.062214644837937413 0.058339209477329353 0 0 0 0.014057765121191758 -0.069574395529520466 -0.024048349265565094 0 -0.024048349265565094 0.0055172581707166879 0 0 0 -0.016014284339701174 -0.11561877981923271 0.00313341295243009 0 0.00313341295243009 0.0023911520149573207 0 0 0 -0.028306906951068814 -0.10149510531180289 0.0055507668630390503 0 0.0055507668630390503 0.0038852852732116361 0 0 0 -0.024402455009647828 -0.17608346888158205 0.009205664470288033 0 0.009205664470288033 0.070183636763643142 0 0 0 -0.026474958029484741 -0.021636499374318274 -0.0017114458944377242 0 -0.0017114458944377242 0.037471502281861468 0 0 0 0.0039587507268859512 -0.020642822437612229 -0.0093618326422809928 0 -0.0093618326422809928 0.079864735733655712 0 0 0 0.014805478324010801 -0.049153312698783307 0.0084889480138938527 0 0.0084889480138938527 0.007677031789580787 0 0 0 -0.010369070227300626 -0.00039842069810791525 0.00062961256062865623 0 0.00062961256062865623 -0.010584869333496894 0 0 0 -0.0027458225079012299 -0.058257967772685562 0.0020000249975618153 0 0.0020000249975618153 -0.010698967735260089 0 0 0 -0.01723923387698641 -0.060386319277352246 -0.031083825165387324 0 -0.031083825165387324 0.019214627718301347 0 0 0 -0.010292922889762746 -0.044201822306680835 0.00056684937185584421 0 0.00056684937185584421 -0.022607694217590023 0 0 0 -0.016702379131067716 -0.03492442051987199 0.066561342464486639 0 0.066561342464486639 0.012274486283899932 0 0 0 -0.0056624835589931255 -0.036219129956311352 0.051997448461801543 0 0.051997448461801543 0.022656280112552662 0 0 0 -0.0033907124609394435 -0.037245066694085685 -0.033744751762077474 0 -0.033744751762077474 0.0053539980109947871 0 0 0 -0.0079727671707726794 0.022653215123263026 -0.12234624882031252 0 -0.12234624882031252 0.21433427971443422 0 0 0 0.059246873709424316 -0.045515381977785874 0.0010465798674713562 0 0.0010465798674713562 -0.020997860387653531 0 0 0 -0.01662831059135985 -0.064056955936615534 -0.013443423292406775 0 -0.013443423292406775 0.0039658908117936598 0 0 0 -0.015022766281205358 0.0022626457934147304 0.0010029589934599237 0 0.0010029589934599237 0.00041580687438580455 0 0 0 0.00066961316695013373 -0.013875980589126424 0.0051917460229997658 0 0.0051917460229997658 0.19611678966889379 0 0 0 0.04556020226994173 0.007931583347043504 0.0019981676188107755 0 0.0019981676188107755 0.17547187875973769 0 0 0 0.045850865526695629 0.0038087765494496661 -0.0044252314395123449 0 -0.0044252314395123449 0.091407181421256922 0 0 0 0.023803989492676481 0.0035433068909700438 -0.0016316580256685166 0 -0.0016316580256685166 0.00087685972818896118 0 0 0 0.0011050416547897512 -0.00047658699180317765 0.0012069681574962132 0 0.0012069681574962132 0.0024214500664973548 0 0 0 0.0004862157686739329 -0.010463557846599247 -0.0077611375887046852 0 -0.0077611375887046852 0.10863169397687145 0 0 0 0.024542034032568161 -0.00050498783267771685 -0.0019167798904531352 0 -0.0019167798904531352 0.0037921612425630968 0 0 0 0.00082179335247145602 -0.048102533771931646 -0.00079722192096569311 0 -0.00079722192096569311 -0.021094723218784639 0 0 0 -0.017299314247679071 -0.050494907064789166 -0.028554296344254715 0 -0.028554296344254715 -0.0048659478232343789 0 0 0 -0.013840213722005796 -0.098951358475970141 0.0030632766758637436 0 0.0030632766758637436 0.010643429738351418 0 0 0 -0.022076982184404653 -0.063837080908656363 -0.035002056395045722 0 -0.035002056395045722 0.0069427850332997032 0 0 0 -0.014223573968839109 -0.058264479462358104 -0.0014871637834981456 0 -0.0014871637834981456 -0.020543778641671298 0 0 0 -0.019702064526007344 -0.033690770181844076 0.041064444121147847 0 0.041064444121147847 0.0028046946224886682 0 0 0 -0.0077215188898382969 -0.030916955800404544 -0.034182576904758788 0 -0.034182576904758788 0.013067259958336574 0 0 0 -0.0044624239605168814 -0.0091954865662862151 -0.0096036968758221319 0 -0.0096036968758221319 0.078425141311025071 0 0 0 0.017307413686184714 -0.019700143013347077 0.0019949452885453245 0 0.0019949452885453245 0.14977219687259868 0 0 0 0.032518013464812895 -0.079420198318570542 0.011266620008383216 0 0.011266620008383216 0.075510763763306177 0 0 0 -0.00097735863881608098 -0.090270846332331234 -0.0037155210508338365 0 -0.0037155210508338365 0.011435887281663726 0 0 0 -0.019708739762666849 -0.041142827145638106 -0.016450740658447066 0 -0.016450740658447066 0.05692012153302084 0 0 0 0.0039443235968458223 -0.041995699467480385 0.0084987866507302834 0 0.0084987866507302834 0.11476790464353714 0 0 0 0.01819305129401419 -0.044958594908771549 -0.043836666768700683 0 -0.043836666768700683 0.013157146970465106 0 0 0 -0.0079503619845765761 -0.045558473476030037 0.008117772343592098 0 0.008117772343592098 -0.00070962123590659516 0 0 0 -0.011567023677984151 -0.033116303119392843 -0.037946673164080735 0 -0.037946673164080735 0.024978821703773857 0 0 0 -0.0020343703539047464 -0.048042535726708691 0.040794159629680138 0 0.040794159629680138 0.0021834802264297792 0 0 0 -0.011464763875069783 -0.043294744674007013 -0.00064850397841448304 0 -0.00064850397841448304 0.037419562390186956 0 0 0 -0.0014687955709550837 -0.029091770741151463 -0.0052543030896801263 0 -0.0052543030896801263 0.042143522722934201 0 0 0 0.0032629379954456916 -0.076977834692154842 -4.988041205585339e-05 0 -4.988041205585339e-05 -0.004545893343045726 0 0 0 -0.020380932008800135 -0.070803312983407321 -0.014580767844433018 0 -0.014580767844433018 0.052490402983046386 0 0 0 -0.0045782275000902511 0.009319790981136139 -0.03767775400347495 0 -0.03767775400347495 0.027180986539607432 0 0 0 0.0091251943801858026 -0.048001103620184796 -0.029990059801689173 0 -0.029990059801689173 -0.0018913213869060502 0 0 0 -0.012473106251772739 0.041797609520227486 -0.026106251307846162 0 -0.026106251307846162 0.036025116942421942 0 0 0 0.019455681615662246 -0.029356784142908848 -0.0049206168724587607 0 -0.0049206168724587607 0.080774547317619683 0 0 0 0.012854440793677646 -0.044061993732065707 -0.0063272875860674871 0 -0.0063272875860674871 0.036380917403001534 0 0 0 -0.0019202690822660573 -0.11113256642380605 0.0022420080068345435 0 0.0022420080068345435 -0.0040471984717290327 0 0 0 -0.028794941223883753 -0.078358813405080219 -0.016518525950140646 0 -0.016518525950140646 0.057603013700264605 0 0 0 -0.0051889499262039313 -0.078988157588697025 -0.01488462268620807 0 -0.01488462268620807 0.069940430984703622 0 0 0 -0.0022619316509983473 0.019947959845970309 0.073913563915775873 0 0.073913563915775873 0.24214211267348823 0 0 0 0.065522518129864649 -0.045874314621400597 -0.027251982270258823 0 -0.027251982270258823 0.2768460977269771 0 0 0 0.057742945776394133 -0.0017527686312366342 0.018980285651922408 0 0.018980285651922408 0.10656721225921206 0 0 0 0.026203610906994079 -0.051208691976700867 0.025417931305830005 0 0.025417931305830005 0.064926301935065545 0 0 0 0.003429402489591199 -0.067190134912685107 -0.011715710738513139 0 -0.011715710738513139 0.00023454837024061703 0 0 0 -0.016738896635611233 -0.077527909597164435 0.00043989147197462559 0 0.00043989147197462559 -0.0081326779189052276 0 0 0 -0.021415146879017424 -0.13576524645531673 -0.010779219918448858 0 -0.010779219918448858 -0.019990111427447249 0 0 0 -0.038938839470690982 -0.11234775741555399 -0.0024113326039288899 0 -0.0024113326039288899 -0.0142151174397179 0 0 0 -0.031640718713817982 -0.036461285114648925 0.0050178811707547698 0 0.0050178811707547698 -0.012782739221299765 0 0 0 -0.012311006083987164 -0.16177112327899479 -0.014574775963832703 0 -0.014574775963832703 -0.0040832259575835812 0 0 0 -0.041463587309144588 -0.13916034415785378 -0.016740908417165721 0 -0.016740908417165721 -0.03303533501252124 0 0 0 -0.043048919792593759 -0.20174348813893678 0.011192037656519278 0 0.011192037656519278 -0.0021033997766438592 0 0 0 -0.050961721978895175 -0.17749372079161604 0.012546955691793475 0 0.012546955691793475 -0.038545966309227575 0 0 0 -0.054009921775210905 -0.076180963829244636 -0.029613939376403164 0 -0.029613939376403164 0.030704322638417048 0 0 0 -0.011369160297706932 -0.042752771311019504 0.0027771698568208386 0 0.0027771698568208386 -0.019164722864098635 0 0 0 -0.015479373543779533 0.017084822357533724 0.0364000626251757 0 0.0364000626251757 0.042933828687384157 0 0 0 0.01500466276122947 -0.049237004294113484 0.0085382477613700214 0 0.0085382477613700214 0.10262402136572557 0 0 0 0.013346754267902938 -0.033632320270388726 0.037481795299699749 0 0.037481795299699749 0.098825912409175806 0 0 0 0.016298398034696772 -0.047983178628403511 -0.046654737550606472 0 -0.046654737550606472 0.043003481976452873 0 0 0 -0.0012449241629876595 -0.0046340828380361495 -0.00028923881962938935 0 -0.00028923881962938935 0.015377173259117952 0 0 0 0.0026857726052701173 0.0013455940353974333 -0.0062393909071261078 0 -0.0062393909071261078 0.047301250661197732 0 0 0 0.012161711174148736 0.0019747492050675402 0.0057342817194570017 0 0.0057342817194570017 0.094762281803408191 0 0 0 0.024184257752119711 -0.0036071605636777871 -0.0003614331762675782 0 -0.0003614331762675782 0.0087606024229688363 0 0 0 0.0012883604648226512 -0.014755499672013547 0.0061666945935656692 0 0.0061666945935656692 0.014718385331803058 0 0 0 -9.2785850527715708e-06 -0.015480581159592666 -0.01423569421981763 0 -0.01423569421981763 0.032599012880149658 0 0 0 0.004279607930139262 -0.15381319718404346 -0.024919841446255479 0 -0.024919841446255479 -0.051177465797390874 0 0 0 -0.051247665745358585 -0.1911727343106214 0.022166325110354913 0 0.022166325110354913 -0.063607615590272504 0 0 0 -0.063695087475223469 -0.21828430930749956 0.022335033017631251 0 0.022335033017631251 -0.029856142805986197 0 0 0 -0.06203511302837144 -0.17898457853864119 -0.024014395868583168 0 -0.024014395868583168 -0.024545700784270139 0 0 0 -0.050882569830727836 -0.041406326313214947 -0.042769215162936303 0 -0.042769215162936303 0.016456581601674625 0 0 0 -0.0062374361778849696 -0.077170556307936594 0.00012619665984256456 0 0.00012619665984256456 0.0036528391659590986 0 0 0 -0.018379429285494374 -0.054659368600990049 -0.031786117705289232 0 -0.031786117705289232 0.0074849158268454064 0 0 0 -0.01179361319353614 -0.051457827469028827 -0.031390000996233999 0 -0.031390000996233999 -0.002818898937899661 0 0 0 -0.013569181601732094 -0.069121990044339027 -0.0010110831608445784 0 -0.0010110831608445784 0.0029693316914028711 0 0 0 -0.016538164588234025 -0.054070215256317965 0.0031128931418516622 0 0.0031128931418516622 -0.0081625438225973162 0 0 0 -0.015558189769728817 -0.053916231962721529 0.0037314493718925046 0 0.0037314493718925046 -0.0076560932824318185 0 0 0 -0.015393081311288326 -0.074251883145791148 -0.057979786571652314 0 -0.057979786571652314 0.1778960675298229 0 0 0 0.025911046096007959 0.0098616463876897847 -0.015395920270659183 0 -0.015395920270659183 0.4948552847476006 0 0 0 0.12617923278382259 -0.092655447898330245 -0.022099144904170753 0 -0.022099144904170753 0.020591431848785646 0 0 0 -0.018016004012386233 -0.031635364504686847 -0.0021650492121869924 0 -0.0021650492121869924 0.070012041365935973 0 0 0 0.0095941692153122538 -0.045620792725479503 -0.01771211436987441 0 -0.01771211436987441 0.039753658691469518 0 0 0 -0.0014667835085025172 -0.055806391806811947 0.0055053361697270705 0 0.0055053361697270705 0.0093205798876277862 0 0 0 -0.011621452979796054 -0.027097240969107483 0.032096142358905677 0 0.032096142358905677 0.086608009310452427 0 0 0 0.014877692085336625 -0.034426918331029843 -0.016472978761579382 0 -0.016472978761579382 -0.0020064148557032979 0 0 0 -0.0091083332966831465 0.0055279827466595266 -0.042766101840766388 0 -0.042766101840766388 0.082233838577670748 0 0 0 0.021940455331082603 -0.025313972064396797 -0.0079428297381407553 0 -0.0079428297381407553 0.028907267080501148 0 0 0 0.00089832375402608411 -0.052730517039783154 0.03240818979970328 0 0.03240818979970328 0.0046291441997983185 0 0 0 -0.012025343209996375 -0.032316526169798632 -0.032661494095534538 0 -0.032661494095534538 0.039780665894319167 0 0 0 0.0018660349311301339 -0.025532759207848699 -0.03266039766247452 0 -0.03266039766247452 0.03201715099313196 0 0 0 0.0016210979463209263 -0.02896487002607695 -0.0044383294291564512 0 -0.0044383294291564512 -0.005762642130655582 0 0 0 -0.0086818780391830774 -0.022510366401426479 -0.0075395359316217658 0 -0.0075395359316217658 0.097211518931674568 0 0 0 0.018675288132562112 -0.055148424177049279 -0.010512036765055657 0 -0.010512036765055657 -0.010095275882989224 0 0 0 -0.016310925015009622 -0.022178729308122938 -0.0082154257463650238 0 -0.0082154257463650238 -0.018837788711855985 0 0 0 -0.010254129504994838 -0.083642461283364763 0.0013810741090793492 0 0.0013810741090793492 -0.0092303942845316268 0 0 0 -0.023218213891974121 -0.076661432679073244 0.0019343209160249293 0 0.0019343209160249293 -0.011427330934270091 0 0 0 -0.022022190903335841 -0.079543992787448198 -0.0088589929345414264 0 -0.0088589929345414264 0.041721335762330794 0 0 0 -0.0094556642562793804 -0.070743925293691556 -0.027582910835056734 0 -0.027582910835056734 0.049726544571196518 0 0 0 -0.0052543451806236763 -0.067445536204492937 -0.0011185338955126724 0 -0.0011185338955126724 -0.0071555017139442803 0 0 0 -0.018650259479609306 -0.062819110644893622 0.0012063394231003003 0 0.0012063394231003003 0.0039822704485308474 0 0 0 -0.014709210049090697 -0.066785967151786724 -0.00085088561768666138 0 -0.00085088561768666138 0.0033440094450511992 0 0 0 -0.01586048942668386 -0.013174547432382722 0.008222570824281461 0 0.008222570824281461 -0.0055890928610580204 0 0 0 -0.0046909100733603659 -0.0049830860477794725 0.010181370891425678 0 0.010181370891425678 0.019591206184872645 0 0 0 0.0036520300342732237 -0.0051827925544402631 -0.015370545479095166 0 -0.015370545479095166 0.050187432910709207 0 0 0 0.011251160089067291 -0.015481074545910634 -0.012899805366130779 0 -0.012899805366130779 0.018249972337989195 0 0 0 0.00069222444801975147 -0.023492347371466327 -0.056300511403898759 0 -0.056300511403898759 0.17657211637531428 0 0 0 0.038269942250961975 -0.0030932224594621971 0.020740364260611877 0 0.020740364260611877 0.0783475729560692 0 0 0 0.018813587624151751 -0.001223797973304741 -0.0036858528444299044 0 -0.0036858528444299044 -0.0011161056911932477 0 0 0 -0.00058497591612427513 -0.0027791404043526757 -0.017772746243434057 0 -0.017772746243434057 0.039365525258122869 0 0 0 0.0091465962134424927 -0.0011722222244798797 0.0040619271070694296 0 0.0040619271070694296 0.0016032046613490003 0 0 0 0.00010774560921755771 -0.057505107920374332 0.043857149909701548 0 0.043857149909701548 -0.0027706225032915199 0 0 0 -0.015068932605916796 -0.03688782621800879 -0.037043053118096955 0 -0.037043053118096955 0.024076210844137691 0 0 0 -0.0032029038434677748 -0.030253427808536126 -0.039378817637703345 0 -0.039378817637703345 0.020664105997900251 0 0 0 -0.0023973304526589967 -0.072023248302186357 -0.013073423373048676 0 -0.013073423373048676 0.058021406477379828 0 0 0 -0.0035004604562016237 0.0029065373107934889 0.013511012406510425 0 0.013511012406510425 0.060967973973351519 0 0 0 0.01596862782103603 -0.0016644402331813524 -0.00033352449454543409 0 -0.00033352449454543409 0.006492166920301301 0 0 0 0.0012069316717799872 -0.0029515310148005014 -0.00057571282599910845 0 -0.00057571282599910845 0.012307466852581328 0 0 0 0.0023389839594449846 0.0002593256162752855 -0.011744030970005204 0 -0.011744030970005204 0.025313329262058204 0 0 0 0.0063931637195835389 -0.033760163784272601 -0.0071897861409740416 0 -0.0071897861409740416 -0.015930602051290377 0 0 0 -0.012422691458890744 0.011648324572626156 -0.039931378019607444 0 -0.039931378019607444 0.011134363532387559 0 0 0 0.0056956720262534288 0.0113648726635458 -0.0010706196485451569 0 -0.0010706196485451569 0.098629953000455739 0 0 0 0.027498706416000274 0.013397948197119258 -0.0042336592173018994 0 -0.0042336592173018994 0.18512009375068827 0 0 0 0.049629510486951967 -0.048070306349833253 0.005008047469089714 0 0.005008047469089714 -0.011448381012639878 0 0 0 -0.014879671840618282 -0.09116954922299092 0.04712903448169159 0 0.04712903448169159 0.0026879721256509725 0 0 0 -0.022120394274335098 -0.10248903547074661 0.045799637613809868 0 0.045799637613809868 -0.0013412559038812333 0 0 0 -0.02595757284365674 -0.037227969088483658 -0.011132392889360965 0 -0.011132392889360965 -0.0098738346554414075 0 0 0 -0.011775450935981391 -0.06600691200227965 -0.007842857929078656 0 -0.007842857929078656 0.01902550632760501 0 0 0 -0.011745351418668667 -0.063106979888906234 -0.031748464982849223 0 -0.031748464982849223 0.0047176931415668297 0 0 0 -0.014597321686834856 -0.052979079262169673 -0.037809055029823707 0 -0.037809055029823707 0.024224216902626133 0 0 0 -0.007188715589885885 -0.064269333852146726 0.046512976123631533 0 0.046512976123631533 -0.0019188110736330088 0 0 0 -0.016547036231445045 -0.0347800221321517 -0.037199167308125558 0 -0.037199167308125558 0.024541617864774601 0 0 0 -0.0025596010668442748 -0.040062315800914239 -0.040066218676466536 0 -0.040066218676466536 0.018166569976587166 0 0 0 -0.0054739364560818515 -0.13266583103861312 -0.0044141237493732464 0 -0.0044141237493732464 -0.01400702283342925 0 0 0 -0.036668213468010594 -0.17296332505450818 -0.0093356116845598192 0 -0.0093356116845598192 -0.019720753209305934 0 0 0 -0.048171019565953523 -0.15993422280762951 -0.016594383507001209 0 -0.016594383507001209 -0.0018255644769044205 0 0 0 -0.040439946821133457 -0.12549783060863845 0.0015666154085172829 0 0.0015666154085172829 -0.0027331139565748078 0 0 0 -0.032057736141303347 -0.073481742265463557 -0.0088775072951120665 0 -0.0088775072951120665 0.028801958056504318 0 0 0 -0.011169946052239775 -0.083260329090678376 0.037416952565380912 0 0.037416952565380912 -0.0067803008297628864 0 0 0 -0.022510157480109871 -0.027548518641483666 -0.031408086744933894 0 -0.031408086744933894 0.039204729541140626 0 0 0 0.0029140527249140735 -0.031435506954675008 -0.033343757895409748 0 -0.033343757895409748 0.030225519087326624 0 0 0 -0.0003024969668370403 -0.06941201190328869 -0.041934476898157769 0 -0.041934476898157769 0.010842942225031127 0 0 0 -0.014642267419564287 -0.039130341005331956 -0.0099656625881176519 0 -0.0099656625881176519 -0.011157479436176981 0 0 0 -0.012571955110377217 -0.045539497349123631 -0.018907569945190383 0 -0.018907569945190383 -0.0028064108671873034 0 0 0 -0.012086477054077727 -0.064000694777451336 -0.015345354799296981 0 -0.015345354799296981 0.020566611968914905 0 0 0 -0.010858520702134097 -0.11221090008387431 0.0026931173785362749 0 0.0026931173785362749 -0.0077220518259673854 0 0 0 -0.029983237977460414 -0.11439395204330666 0.077110225515334641 0 0.077110225515334641 0.022326336168275729 0 0 0 -0.023016903968757607 -0.078934708791409069 -0.037260839232794996 0 -0.037260839232794996 0.013507406343284067 0 0 0 -0.016356825612031334 -0.025530373106258719 0.0457293949640456 0 0.0457293949640456 0.041772680968392817 0 0 0 0.0040605769655338575 -0.045803001288145261 -0.02878060015672923 0 -0.02878060015672923 -0.0025467272672297231 0 0 0 -0.012087432138843633 -0.0244857266039753 0.070168612956153509 0 0.070168612956153509 0.014912273064491721 0 0 0 -0.0023933633848707281 -0.10340274938629015 0.0015763994705243894 0 0.0015763994705243894 0.00112629693924296 0 0 0 -0.02556911311176183 -0.068404189442163504 -0.0059308099495311364 0 -0.0059308099495311364 0.013868576402845506 0 0 0 -0.013633903259829499 -0.067713622949800989 -0.037515488196935287 0 -0.037515488196935287 0.0026423372465900208 0 0 0 -0.016267821425802742 -0.0068591839108709876 0.0087959396457564232 0 0.0087959396457564232 0.058168895216103716 0 0 0 0.012827427826308239 -0.011544172451439794 -0.012363559420707382 0 -0.012363559420707382 0.11441483280537601 0 0 0 0.025717665088484054 -0.065705254415184086 -0.003149882801266761 0 -0.003149882801266761 0.0011435397020446575 0 0 0 -0.016140428678284878 0.0027051148724357432 -8.2729743896781116e-05 0 -8.2729743896781116e-05 0.006381667007831382 0 0 0 0.0022716954700663372 -0.0069465596072348923 0.0011152656097950242 0 0.0011152656097950242 0.0034071361214067508 0 0 0 -0.00088485587145692435 -0.0011897429568366036 -0.016400917543753613 0 -0.016400917543753613 0.054973446585015573 0 0 0 0.013445925907044742 -0.0014676494162775278 -0.0076576927776408343 0 -0.0076576927776408343 0.056391080624238477 0 0 0 0.013730857801990126 -0.0028761922298854437 0.0085605388857392661 0 0.0085605388857392661 0.11203971698959769 0 0 0 0.027290881189927951 0.0018709363396640644 -0.0001297027675040141 0 -0.0001297027675040141 0.0036718556288146686 0 0 0 0.0013856979921196277 0.0022222612485816029 0.016787815926607941 0 0.016787815926607941 0.11230006404094084 0 0 0 0.028630581322381055 -0.005683983775979895 -0.0014492278597604269 0 -0.0014492278597604269 0.0014094223373319892 0 0 0 -0.001068640359662032 -0.038277683230445114 -0.011969462906417372 0 -0.011969462906417372 -0.014206221799671015 0 0 0 -0.013120976257528949 -0.042649270425508479 -0.015094155460734955 0 -0.015094155460734955 0.02087007790639861 0 0 0 -0.005444798129777495 -0.052704052241066168 -0.01821357235571687 0 -0.01821357235571687 0.01578479292770596 0 0 0 -0.009229814828339844 -0.02345398659897989 -0.0028841937528396588 0 -0.0028841937528396588 -0.011822211417678544 0 0 0 -0.0088190495041646638 -0.023080225538860188 0.00028157620715063558 0 0.00028157620715063558 -0.0040025028046579703 0 0 0 -0.0067706820858794425 -0.050742136478438081 0.031710630086809646 0 0.031710630086809646 0.13851517963550453 0 0 0 0.021943260789266623 -0.080632340176216705 -0.0196289079206107 0 -0.0196289079206107 0.019858466941164388 0 0 0 -0.015193468308763045 -0.084209569284851418 -0.031458984387248368 0 -0.031458984387248368 0.011242849999577753 0 0 0 -0.018241679821318371 -0.089594096615644825 -0.0020811938381012432 0 -0.0020811938381012432 0.0053870056356682405 0 0 0 -0.02105177274499416 -0.14008873146222189 0.057661157533468455 0 0.057661157533468455 0.0057954483558995129 0 0 0 -0.033573320776580484 -0.11411338288668837 0.078616307503262983 0 0.078616307503262983 0.05136978498231981 0 0 0 -0.015685899476091891 -0.045342612655569547 0.030091033935793834 0 0.030091033935793834 0.089590453671420212 0 0 0 0.011061960253962638 -0.030300733421384562 -0.011022830706860359 0 -0.011022830706860359 0.04402494935993162 0 0 0 0.0034310539846367782 -0.038604114626055785 -0.0089230989440517092 0 -0.0089230989440517092 0.0468558165746642 0 0 0 0.0020629254871522007 -0.0069179469800160209 0.044067470022281438 0 0.044067470022281438 0.096276716802804974 0 0 0 0.022339692455697224 -0.082380943302199194 -0.037714091368800773 0 -0.037714091368800773 0.023906774404568454 0 0 0 -0.01461854222440756 -0.096513253086770695 -0.027073994350525266 0 -0.027073994350525266 0.0022778564776878008 0 0 0 -0.023558849152270661 -0.042227759442408419 0.026657796358657393 0 0.026657796358657393 0.067983194077254255 0 0 0 0.0064388586587114799 -0.025761981193282144 0.033886625455449848 0 0.033886625455449848 0.055989915466312955 0 0 0 0.0075569835682576959 -0.056153902075658235 -0.021970604503811886 0 -0.021970604503811886 0.032471448974211947 0 0 0 -0.0059206132753615859 -0.066157170340179428 -0.011097234815735317 0 -0.011097234815735317 0.015751522140194291 0 0 0 -0.01260141204999627 -0.065944565629075982 -0.0096661352541992582 0 -0.0096661352541992582 0.02803448310112866 0 0 0 -0.0094775206319868271 -0.067553815347279639 -0.0072139307965751118 0 -0.0072139307965751118 0.046164418911384036 0 0 0 -0.0053473491089738798 -0.0055839880264942909 0.022060280585361358 0 0.022060280585361358 0.14516127382854727 0 0 0 0.034894321450513077 -0.036357311441402973 -0.0073783299382488288 0 -0.0073783299382488288 0.00038747977540909417 0 0 0 -0.0089924579164984975 -0.10346582119350137 0.0053740835401227954 0 0.0053740835401227954 0.0010749760514494333 0 0 0 -0.025597711285513004 -0.050582489815193685 0.0036991880576153525 0 0.0036991880576153525 -0.017810067248634598 0 0 0 -0.017098139265957071 0.028277838673767097 0.022767485236910856 0 0.022767485236910856 0.084143882321547014 0 0 0 0.028105430248828722 -0.032147294323971343 -0.0080245375385149531 0 -0.0080245375385149531 -0.012277331228085497 0 0 0 -0.011106156388014266 -0.093247184247994816 -0.031922620230215901 0 -0.031922620230215901 0.0011742282127885084 0 0 0 -0.023018239008801608 -0.12399530700543322 -0.024591817478505029 0 -0.024591817478505029 0.0066115406873704652 0 0 0 -0.029345941579515714 -0.048273899050892077 -0.015304836049695292 0 -0.015304836049695292 0.056981294177860353 0 0 0 0.002176848781742069 
</DataArray>
<DataArray type="Float64" Name="cross_section_updated" format="ascii">
0.0010123050612659455 0.0010301557180818024 0.0010405304861910432 0.001049960601121498 0.0010594930705457957 0.0010696873110519946 0.0010806499457160677 0.0010917014535325364 0.001102739544331259 0.0011125672489743894 0.0020428259092314795 0.0021100774643508418 0.0021545412707545154 0.0021935569519891071 0.0022310402087132152 0.0022676069255145076 0.0023037420527522588 0.0023386597062170426 0.0023723914882497663 0.0024038748640605474 1 1 1 1 1 1 1 1 1 1 1 1 1 1 1 1 1 1 1 1 1 1 1 1 1 1 1 1 1 1 1 1 1 1 1 1 1 1 1 1 1 1 1 1 1 1 1 1 1 1 1 1 1 1 1 1 1 1 1 1 1 1 1 1 1 1 1 1 1 1 1 1 1 1 1 1 1 1 1 1 1 1 1 1 1 1 1 1 1 1 1 1 1 1 1 1 1 1 1 1 1 1 1 1 1 1 1 1 1 1 1 1 1 1 1 1 1 1 1 1 1 1 1 1 1 1 1 1 1 1 1 1 1 1 1 1 1 1 1 1 1 1 1 1 1 1 1 1 1 1 1 1 1 1 1 1 1 1 1 1 1 1 1 1 1 1 1 1 1 1 1 1 1 1 1 1 1 1 1 1 1 1 1 1 1 1 1 1 1 1 1 1 1 1 1 1 1 1 1 1 1 1 1 1 1 1 1 1 1 1 1 1 1 1 1 1 1 1 1 1 1 1 1 1 1 1 1 1 1 1 1 1 1 1 1 1 1 1 1 1 1 1 1 1 1 1 1 1 1 1 1 1 1 1 1 1 1 1 1 1 1 1 1 1 1 1 1 1 1 1 1 1 1 1 1 1 1 1 1 1 1 1 1 1 1 1 1 1 1 1 1 1 1 1 1 1 1 1 1 1 1 1 1 1 1 1 1 1 1 1 1 1 1 1 1 1 1 1 1 1 1 1 1 1 1 1 1 1 1 1 1 1 1 1 1 1 1 1 1 1 1 1 1 1 1 1 1 1 1 1 1 1 1 1 1 1 1 1 1 1 1 1 1 1 1 1 1 1 1 1 1 1 1 1 1 1 1 1 1 1 1 1 1 1 1 1 1 1 1 1 1 1 1 1 1 1 1 1 1 1 1 1 1 1 1 1 1 1 1 1 1 1 1 1 1 1 1 1 1 1 1 1 1 1 1 1 1 1 1 1 1 1 1 1 1 1 1 1 1 1 1 1 1 1 1 1 1 1 1 1 1 1 1 1 1 1 1 1 1 1 1 1 1 1 1 1 1 1 1 1 1 1 1 1 1 1 1 1 1 1 1 1 1 1 1 1 1 1 1 1 1 1 1 1 1 1 1 1 1 1 1 1 1 1 1 1 1 1 1 1 1 1 1 1 1 1 1 1 1 1 1 1 1 1 1 1 1 1 1 1 1 1 1 1 1 1 1 1 1 1 1 1 1 1 1 1 1 1 1 1 1 1 1 1 1 1 1 1 1 1 1 1 1 1 1 1 1 1 1 1 1 1 1 1 1 1 1 1 1 1 1 1 1 1 1 1 1 1 1 1 1 1 1 1 1 1 1 1 1 1 1 1 1 1 1 1 1 1 1 1 1 1 1 1 1 1 1 1 1 1 1 1 1 1 1 1 1 1 1 1 1 1 1 1 1 1 1 1 1 1 1 1 1 1 1 1 1 1 1 1 1 1 1 1 1 1 1 1 1 1 1 1 1 1 1 1 1 1 1 1 1 1 1 1 1 1 1 1 1 1 1 1 1 1 1 1 1 1 1 1 1 1 1 1 1 1 1 1 1 1 1 1 1 1 1 1 1 1 1 1 1 1 1 1 1 1 1 1 1 1 1 1 1 1 1 1 1 1 1 1 1 1 1 1 1 1 1 1 1 1 1 1 1 1 1 1 1 1 1 1 1 1 1 1 1 1 1 1 1 1 1 1 1 1 1 1 1 1 1 1 1 1 1 1 1 1 1 1 1 1 1 1 1 1 1 1 1 1 1 1 1 1 1 1 1 1 1 1 1 1 1 1 1 1 1 1 1 1 1 1 1 1 1 1 1 1 1 1 1 1 1 1 1 1 1 1 1 1 1 1 1 1 1 1 1 1 1 1 1 1 1 1 1 1 1 1 1 1 1 1 1 1 1 1 1 1 1 1 1 1 1 1 1 1 1 1 1 1 1 1 1 1 1 1 1 1 1 1 1 1 1 1 1 1 1 1 1 1 1 1 1 1 1 1 1 1 1 1 1 1 1 1 1 1 1 1 1 1 1 1 1 1 1 1 1 1 1 1 1 1 1 1 1 1 1 1 1 1 1 1 1 1 1 1 1 1 1 1 1 1 1 1 1 1 1 1 1 1 1 1 1 1 1 1 1 1 1 1 1 1 1 1 1 1 1 1 1 1 1 1 1 1 1 1 1 1 1 1 1 1 1 1 1 1 1 1 1 1 1 1 1 1 1 1 1 1 1 1 1 1 1 1 1 1 1 1 1 1 1 1 1 1 1 1 1 1 1 1 1 1 1 1 1 1 1 1 1 1 1 1 1 1 1 1 
</DataArray>
<DataArray type="Float64" Name="displacement_divergence" format="ascii">
0.012258489709509652 0.030102169092483942 0.040471565222340654 0.049906546456026275 0.059445544561960141 0.069642465644550997 0.080605314930354818 0.091656523426503184 0.10271060394188053 0.11248081030604222 0.021501254735349525 0.05499921899675448 0.077225218864254458 0.096725518391083287 0.11546103153937287 0.13373857801656536 0.15180581720297459 0.16923265244425301 0.18621475284354044 0.20150393618526505 -2.5855218172075487e-05 -9.2122939681390896e-06 -2.5807038546827546e-05 -2.7419269391163981e-05 -0.00011454244792887473 -8.8875161683877989e-05 -0.00012216165503741846 -9.2267690239115907e-05 -0.00010027951246839906 -0.00016581998500312056 -3.6542362843018533e-05 -3.6002105958300543e-05 -5.4461869433322719e-05 -6.1839350177160125e-05 -6.3119558203268984e-05 -3.2377898710482788e-05 0.00027526042977767519 5.6085322116599876e-06 9.7529083281314849e-06 1.9551314579974513e-05 4.4402738860914101e-06 -2.4930129778528466e-06 -2.0090040467016408e-06 -5.1642615128763957e-05 0.00021939097426849989 -0.00016684306912938133 -9.5064796011623217e-05 -6.8318215918431835e-05 -3.6853828635293514e-05 -8.990394369841551e-05 -8.8891080079587939e-06 -1.604843602362059e-05 -1.894465444828063e-05 -1.5128506372872556e-05 -2.777099233007476e-05 -7.4119253386818241e-05 2.5499057540759722e-05 -8.7220484311462186e-05 0.00024699116581094506 1.8611536383427774e-05 4.6908773455561336e-05 2.254693094321603e-05 4.9332927128220572e-05 -6.8818913833684076e-06 -5.1775616059930125e-05 -5.116834060931834e-05 -5.6138427948772783e-06 -1.7375733065003694e-05 0.00028501732683148347 -7.750705928318512e-06 2.9269622254331212e-05 -2.1204370224315542e-05 4.4440612560577215e-06 -3.0251046746648943e-05 -4.1362909364929578e-06 -8.3536077217141042e-05 -6.6698736731715148e-06 7.392167637971115e-05 4.4543036725154788e-05 5.3779285690176704e-07 -1.4211869255879384e-05 8.5363755985407144e-05 -1.4197538064875288e-05 -1.9636479547803336e-05 -2.728052121868667e-05 -9.9232150789431656e-05 -0.00012568232262059946 1.4126023569059737e-05 4.5721180456636049e-05 -0.00010063487119579256 -8.2710841322763734e-05 -4.5224080391881329e-05 -8.8542547546705588e-05 -0.00011707354234600771 -3.2107957003125586e-05 -2.6554573590403449e-05 0.00010228637254854935 -6.0890666254364255e-06 -3.5127154846523764e-05 -1.5641112789475156e-05 -4.658865231209168e-05 -0.00012645736522772451 -0.00010026324331402949 -5.1603714987204778e-05 7.6068771194350883e-06 -5.7751168404910225e-06 -2.0513738321628321e-05 -3.9101104244516818e-05 -6.8422182656703581e-05 -2.0408556994215804e-05 -3.612906388806169e-05 -3.7708956131105346e-05 -4.1659116909389872e-05 -6.7275577608893328e-06 -7.9739669062424499e-06 -1.1649572293382466e-05 1.9987239363583611e-05 9.6865851414880237e-05 -8.0236653714812339e-08 -6.9035141511404434e-06 9.9797843464247658e-05 5.5438163358504004e-05 -4.3670783670720717e-05 -4.8029101328784119e-05 3.5756225991478204e-05 1.2370053235306617e-05 -1.5521678206598035e-05 1.0110342530121911e-05 -3.3537912800746597e-06 1.1072431282521393e-05 -8.1085294876001926e-06 4.4547833922726696e-05 -9.0907941876938953e-05 -0.00014260517242822396 -7.8229549158523857e-06 0.00011926245171890043 -2.3461558355468209e-05 -2.3217752891264786e-05 1.6244049309445235e-05 1.2410852488277044e-05 3.2979125589490017e-05 5.0542965857514959e-06 1.4898536458994691e-05 -2.8896783955660848e-05 -2.6815433561765672e-05 -2.5831428967581268e-05 -4.2477339254679003e-07 -0.00012148747745996434 -4.0722831479485775e-05 -3.2924276624822155e-05 -2.0859252865410385e-05 -9.0980522427829783e-05 -7.7325752951868494e-05 -7.4821007802351736e-05 -0.00011711082548843674 -0.00011456617993907999 -2.6168635415436329e-05 -7.4233648080848473e-05 3.5370668863226803e-05 -3.678748756408476e-06 -9.1101572140583433e-06 -2.7013086322905198e-05 -3.1770370255690666e-06 -3.5934255869801336e-06 -7.9184558403957994e-06 -2.9989736291162169e-05 -6.0848903116645355e-05 -5.699228801380083e-05 -1.1324344079682906e-05 -6.7824535152953411e-05 -5.5742028847323953e-05 -4.59687893172253e-05 -4.2008905558425407e-05 -4.5664776489359568e-05 -4.6334404237595627e-05 -4.5809011233647484e-05 -1.833602011590167e-05 -3.8178933419760992e-05 -5.0011432984954456e-05 9.7055844672232097e-06 -4.4010572844134236e-05 -3.8205920254625383e-05 -0.00012640161959103378 -0.00010021980929498386 9.9715853478858228e-05 -3.7335290742711212e-05 -1.3750706966784575e-06 -2.3501160794996232e-05 -8.7624449423420733e-05 -0.00013285522527427919 -3.3505094087145706e-05 -8.0869445068241553e-05 -9.8332074356500632e-05 -8.1108433370590482e-05 -5.9225404818732135e-05 -5.9507299861029356e-05 -6.3976958435002138e-05 -3.0192052658514876e-05 2.1032145737552924e-05 -2.3884284200275351e-05 -4.6448770059967012e-05 -5.0951406006070012e-05 -7.1548327049243834e-05 -6.4072849604260052e-05 -3.9001455668672541e-05 -3.5020836300915428e-05 -3.3429721123227289e-05 2.9981692837552192e-05 7.3993937681369082e-05 -1.7438883552988577e-05 -3.7875051655491461e-05 -3.5116249239635733e-05 -4.0544406287411697e-05 1.8903363266918952e-05 -2.1057343436062356e-05 -4.8861288688485998e-05 -3.3444587797131593e-05 -9.2534415185770725e-05 -0.00013148906936112512 -2.4635593789494906e-05 -6.9791947815329107e-05 -8.0155823466753777e-05 -0.00014622945678005291 -8.7188988916334326e-05 9.5066288446665547e-05 0.0002909310778909093 -1.1677570534379374e-05 -2.900897848476735e-05 1.7033502340405348e-05 -1.1849744613913254e-05 -4.3410652236085812e-05 -5.2575368194144679e-05 1.0986794489161247e-06 -0.0001270069089249337 -2.4312938093284768e-05 -9.9827723183936595e-07 -2.4952406789194517e-05 -4.1659372356952335e-05 -2.7621950190572144e-05 -1.7346568183397947e-05 -7.7754098664246465e-05 -3.1634270049867453e-05 -0.00011416595421734284 -1.7741366857736834e-05 -2.0809530089585342e-05 -2.7745778653000611e-05 -2.3315820438846516e-05 -3.0709321400134541e-05 8.4272593483743658e-05 -4.1350841230523435e-05 -4.7905649991236375e-05 -3.4547335176869915e-05 5.9886185328842322e-05 -9.1858094773832527e-05 -4.1534567180087394e-05 -0.00013185731688776043 -8.9443961192892739e-05 -7.743894970956163e-05 -4.1296830911434681e-05 -3.4747505815522616e-06 -1.1690804454018045e-05 3.6730277626329216e-06 -3.8710028090027029e-05 -1.6671272118891009e-05 -6.9749833592632447e-06 -4.2089815118608396e-05 -1.1245930638317031e-05 1.5318381735135098e-05 -1.7530282385982629e-06 -5.5982720348068948e-06 4.4290957243123957e-06 -7.3133785942918026e-05 -5.364522526123144e-05 -6.1166796801427983e-05 -8.9480141738848811e-05 -7.2410510458551045e-05 -5.1705969748255629e-05 7.8635955421934352e-05 -9.8089573485420179e-05 -8.013038920134309e-05 -2.552168075112103e-05 -6.10784882052807e-05 -6.9238659445175363e-05 -0.00010719859316550028 -0.00011138396659045397 2.734742514975963e-05 -8.4557285066717489e-06 1.9682942515885233e-05 2.4551346688411312e-06 -5.1162348957463412e-05 5.0607949937668821e-05 9.339151700862153e-05 -1.1989271706621567e-06 -6.3276254381202485e-05 -7.4788915173487668e-06 -0.00010159275498652486 -2.983277208042502e-05 -2.6389020776542197e-05 -2.6683745287696143e-05 -5.4627510703093195e-05 -4.768159003714907e-05 -6.0018315000520683e-05 -6.0814299116502282e-05 -6.6931845271787243e-05 -9.3306543325136703e-05 -9.8235855921971412e-05 -8.109614341446765e-05 -6.4389722517855816e-05 -7.7895353115634699e-05 -5.4258846011707963e-05 2.7820637477396243e-05 -3.466352893110517e-05 -9.8124028348788375e-06 5.4792855354694747e-06 -6.5840222087199847e-05 -7.7302969382599555e-05 -3.3313931136846675e-05 -1.2070730296461635e-06 -5.9573771249926168e-05 2.1244564662444747e-05 -3.2775612949840702e-05 -9.7220990223126607e-06 -0.00011525935308706508 -8.336281914201891e-05 -1.2614111325063546e-05 -4.0344229817795232e-05 -3.537753961235584e-05 -0.00011592068611109491 -8.5341685586544982e-05 3.2715358189469473e-06 -1.9321614125952444e-05 -1.3368126833630117e-05 -6.5055663815825164e-05 -5.2439109518198849e-05 -1.5412888813532913e-05 -1.1151591668560078e-05 -6.3790767591776881e-05 -6.0613089561972771e-05 -6.0208244823790523e-05 -5.8690660657564289e-05 -2.3485304737591887e-05 -1.8734724875354694e-07 -2.1989849014688823e-05 -5.637010877613223e-06 -3.131632878782117e-05 -6.472036541850263e-06 -1.6427128696329923e-05 -2.5530579302458333e-06 -4.3767379262317843e-05 -2.3742324011680541e-05 -9.8968328237726609e-05 -8.0777408584474172e-05 -1.1749000462915648e-05 5.4104905146136343e-05 9.5964177292458632e-05 -1.899061069951116e-05 -1.3291320746077801e-05 -1.6737248556650481e-05 -2.8393813150203243e-05 -2.9419481560951635e-05 -1.8999289017163187e-05 1.3094279652282946e-05 1.7952617379487709e-05 4.7299748530898285e-05 3.4406522335340625e-06 -1.6644165797869695e-05 -3.7552256980221339e-05 -3.2236368015809187e-05 7.4784496044274715e-06 -1.6455725082912404e-05 -8.7150703222886014e-05 -7.4308525990439959e-05 1.8547887322112756e-05 -0.00011876631441544626 -9.3373745402396114e-05 -2.8038028753153699e-05 3.2455757043994577e-05 1.7439259311240917e-05 -7.3644380721724426e-06 -3.3526478008202333e-05 -1.6705201146805101e-05 -2.9862169922261666e-05 -6.8321244280152189e-05 -5.2611872401009223e-05 2.4689338608672941e-05 1.9164930048257112e-05 4.3884490508599994e-05 -1.9679456763123566e-05 -1.5639802044439019e-05 3.6427463132908958e-05 2.3433472312058283e-05 4.1913267093483808e-05 -1.5913565951351967e-05 -3.8199752583753174e-06 -1.3321748277116637e-05 -2.7197760515981751e-05 -5.4751794783294865e-06 -4.8840541770829669e-05 -7.1973515252670307e-05 -6.3356176194077904e-05 -2.4124196607633448e-05 1.5276942777797719e-05 -0.00011746482614265197 -4.1865990079294083e-05 -2.7662410847632872e-05 -3.0669717449714968e-05 -3.8552550634386902e-05 -5.0943632991941283e-05 -3.9887948769363109e-05 -2.8774967336325739e-05 -2.5924148468302246e-05 5.4180924988068806e-06 -8.3619527339521443e-05 8.0414543098471908e-05 -2.045763530352288e-05 -3.3658528718325288e-05 -3.1652546898352181e-05 -1.6437137410592675e-05 1.0590960454580876e-05 -1.9621946536739146e-05 -2.6327811496589165e-05 -3.2919934278085846e-05 -7.3169975724795031e-05 -3.1471636170992497e-05 -1.5907250864165008e-05 -8.2492764315517868e-05 7.9333409823751277e-05 -1.0033142819766e-05 -9.8606216685928963e-06 -3.2872721121737092e-05 -4.0630521428156406e-05 1.3706154670419478e-05 -1.9108968864047361e-05 -3.6821910170616587e-05 -3.2892329907035206e-05 -6.2257807073319007e-05 -4.6027655149959374e-05 -3.8082117915427997e-05 -6.2788213117441483e-05 -9.4414394492842169e-05 1.9698938712064745e-05 4.3105751087123148e-05 -7.4284950748938381e-06 -2.5900832330553038e-05 9.5820060822298736e-05 -4.4593748570504789e-05 -1.3563327250965169e-05 3.9094243142248457e-05 -3.4400999294590296e-05 -2.4698476929286076e-06 -1.1596319355915196e-05 -4.2702698339372215e-05 -1.2413099359650191e-05 3.8808861178945414e-05 -1.2803917694032994e-05 -0.00010533693723675314 -0.00018035736371000945 5.3241743518063619e-05 -6.2044930170034859e-05 5.77461786449219e-05 6.5187228017196024e-05 0.00011728616665053395 0.00011262950061780496 -2.8576981793770949e-06 1.6251481925302512e-05 6.5243718622593275e-05 2.6185876034737232e-05 -1.7591774010627497e-05 4.4482845401335944e-05 -6.2873589853490452e-06 -6.1328176236699963e-06 1.7210164649119133e-05 -3.5921706848437309e-05 4.2026528292799176e-05 -3.5873952909596784e-06 9.057601965411457e-06 -3.5413755649447293e-06 1.6948290460788371e-05 6.2663502231794475e-06 -3.3826353134894899e-05 -3.2997827039400773e-05 -4.0441278691907714e-05 -4.1220533856672643e-06 -5.8478893747472018e-05 3.4260309235175485e-05 -4.6881247101731574e-06 -3.8817404160727852e-06 -2.9262041116396046e-05 -2.9107694717990171e-05 -0.00019024108546877665 -0.00010496580729454203 -4.8868087261321223e-05 -5.4956899721997169e-05 -6.5712974311257918e-06 -8.5091522008247679e-06 -1.7586048203297752e-05 -0.00011136972940582854 -8.4650381106563636e-05 5.6228508832277709e-05 -9.2617056905905794e-05 -7.5351277178508557e-05 -2.432078608916163e-05 7.490225884948824e-05 -1.8177005748008717e-05 -5.1312607577307448e-06 -7.6881066936096854e-05 -7.2146424214760579e-05 -9.8487713584840544e-05 -0.00015353668202079169 -3.8030081502111253e-05 2.4252749777351531e-05 -1.203478769238365e-05 -7.2929200475983463e-06 -1.2081282355268179e-05 1.9928266973763019e-05 1.7218199688475733e-05 -1.1981150913340519e-05 -2.7060503568299095e-05 -6.4616105042282035e-06 6.5725409751421295e-05 -9.5113955967488298e-05 -0.00014037288253683538 1.7744143857592885e-06 4.5220411432632217e-05 -2.6502924609553683e-05 -9.5858887854061649e-05 -7.7628967046378355e-05 -4.4931522455448981e-05 -8.3054888463809462e-06 1.6835909904149189e-05 -4.4469145531940324e-05 -4.3403994752169543e-05 2.2043265376441761e-05 2.0822250903118145e-05 -7.5842164966054065e-06 -1.2223299593573807e-05 -2.031914411389514e-05 -8.7951258977631887e-06 9.890879591037665e-05 9.8285587603287247e-07 4.974833214723925e-05 1.4906328366550824e-06 -1.9345079832041556e-05 -2.83966396508629e-05 -1.927485586395152e-05 -0.00012064794027383046 -0.00013777480913149657 -3.5621646466706572e-05 -4.1426563877881622e-05 2.4304663804672094e-05 -7.4458302599253757e-05 -6.8162476667767461e-05 -7.7489819960694845e-05 -9.2312491814263353e-05 -4.7492796009112031e-05 -3.6448513783020157e-05 -5.5685646721248629e-05 -5.3581961534323714e-05 -5.1544861926069709e-05 -5.7667456187231723e-05 -4.2531884565048111e-06 -2.0842851815679273e-05 -6.1706722334446741e-05 -6.2253907897660685e-05 -2.8082665803424756e-05 -6.7255675984801669e-05 -7.6033910363839063e-05 6.6686301133834927e-06 -3.2006805461685432e-05 -9.3272124547329736e-05 -8.1155572946910311e-05 3.5919080912031665e-05 -1.437062188920776e-05 -4.5926780616396373e-05 1.5827219610873482e-05 -1.9879161363999034e-05 -2.3006349280341062e-05 -0.00012901340579625574 -9.9478407269538378e-05 1.2857273197805215e-05 -2.3034182305730469e-05 -3.5040351523754654e-05 -6.8346380021006524e-05 -6.59054793669951e-05 -2.216691767422226e-05 -3.1597171980155556e-05 -3.5326058018667528e-05 -1.7811885504043324e-05 -3.1110210610120319e-05 0.00010456978430411731 -4.6009043296253911e-05 -3.6763482631544525e-05 2.5113835809683618e-05 2.145859108219233e-05 -7.0161131862023478e-05 -1.4800249707772208e-05 -9.0972886570290308e-05 -0.00014615766122499398 -8.8009177591099491e-05 -0.00014523723474472842 -9.0129626387664736e-05 -0.00011404649152005664 -1.5831257596332453e-05 -3.7867218025235475e-06 3.2927292180028197e-05 7.9012695771906827e-05 9.0012912827815497e-06 6.1871992555391736e-05 1.7345692139257031e-05 -3.638133518764949e-05 1.9261012764675944e-06 -1.4843615095099861e-05 -4.9972303931952307e-06 -9.0455075436132737e-05 -1.2285415216072471e-05 0.00011682768061987091 9.8545048409644795e-05 2.6530300486474331e-05 -0.0001603197013565396 -9.5881429958818195e-05 -1.0490884916813887e-05 -6.2006721952181498e-05 -3.8655286609324668e-05 -6.6381348873749239e-06 5.3467622546579103e-07 2.5577247536848159e-05 -1.2851741546729759e-05 -6.1155999335377816e-05 -6.5932801280887824e-05 -1.6368590929436301e-05 -1.7091817479647671e-05 -2.0702842165055784e-05 -2.2887696582195652e-05 -3.7234322781728351e-05 -2.7591228799743502e-05 -7.1600584641954375e-05 -8.3287119858562573e-05 -7.2671943138311003e-05 -0.00012220007771837019 -7.1450639322400442e-05 -2.8142772394946551e-05 1.351714409249553e-06 -0.00010788186301289478 -0.0001391488003722662 -4.1223282437811997e-05 2.1595330558799475e-05 -9.4922146829901641e-05 -0.0001660059676008668 -5.2157191601555933e-05 -9.6017287819068694e-05 -7.4091202921432105e-05 0.00012949194704857912 -0.00012910749083389317 -8.7770829907909858e-05 -3.2287316512908206e-05 -3.4330995968860395e-05 -8.257173242744539e-06 -3.1100071878288908e-05 -2.0617788367544955e-05 0.00011372650381206214 -6.9008019584599053e-05 -3.6967979745393607e-05 7.665501014524935e-05 -5.6709001890703619e-05 -0.00019935264986396524 -0.00011120325342863055 -1.6721207606258442e-06 -9.2432079293168899e-05 -0.00010470043562763783 3.7478829872288912e-05 -3.7040306834666518e-05 -2.3220789831174217e-05 7.5872589212719679e-05 -1.0791827511238798e-05 -2.0728759685289633e-05 5.3911209271658399e-06 -3.1193124131173111e-05 -3.1544360583988552e-05 3.2530559587136843e-05 -5.1675620550532017e-05 3.811648246448675e-05 -8.1273450386638824e-05 -4.1608252731320408e-05 -7.4359112914961097e-05 -5.5336307624739931e-05 -8.8928869335238344e-05 -8.0831334648446065e-05 -6.3592478629063368e-05 -6.9688830012262657e-05 -7.4007626135932217e-05 -6.553083280992728e-05 -6.6101092279017784e-05 -2.2967293169499187e-05 1.3195310970108935e-05 -2.5638577177150835e-05 -1.256716655924806e-05 -2.5985193810407789e-05 1.9392544092291966e-05 -3.5438794335244331e-06 -0.00011155009372566566 -0.00020271204812195051 5.7929978995118446e-06 3.290950832395825e-05 -5.7991099971940469e-05 -4.3417381592190776e-05 -5.1195196430416421e-05 -4.5267193566231239e-05 5.8454269091576935e-05 -9.0363843922885311e-05 -8.3660894174595501e-05 -0.00010720002260000064 -0.00012510782639172936 -9.0122656909960228e-05 6.1737984591175594e-05 2.1505893626785422e-05 -9.8346696444488542e-06 -5.7089529867837617e-05 -1.6972120997809672e-05 -7.3929293465680172e-05 2.3246942030049223e-05 -4.6446203778985848e-05 -3.2698439932023093e-05 8.8611046596803682e-05 -0.00015626372154775321 -3.9189583818825857e-05 -7.4988579496072447e-05 -8.534101356759504e-05 -1.996744416724416e-05 -8.7595043351591947e-05 -0.00013996504648970901 5.0471489792779101e-05 -3.4536964206951203e-05 2.4332826299295436e-05 -1.0557483076512075e-05 -6.832557349762498e-06 -3.0328947613427493e-05 -4.3356119239205481e-05 -4.6612196374559612e-05 6.4011694703020147e-05 5.5012957094384331e-05 -2.993126326978463e-05 -2.5559733581286947e-05 1.8461270546340537e-05 1.1849468577669262e-05 3.4376165128852457e-06 3.21426195578952e-05 -4.082284689559808e-05 3.9909094277952714e-05 1.2352633320798995e-05 -6.376813867706773e-05 -7.2921550883692167e-05 -0.00011831151016563138 6.4415117459115038e-06 1.7653296064584675e-05 -3.7645695075314874e-05 -4.3984783739946576e-05 -0.0001370161666672304 -8.9720679081417809e-05 -8.3345677837303074e-05 5.132507830515106e-05 -2.3195011725070293e-05 -4.4721463966800114e-05 -2.957726075233405e-05 -4.5799734683758721e-05 -5.7661522662141163e-05 -9.0870951630276481e-06 2.2360336058916395e-06 -6.5583891223206154e-05 -7.6397099410103922e-05 -0.00011997127388256048 -1.1008865285048325e-05 -1.2617196779974183e-05 -7.3117571222199273e-05 -6.5694042754880526e-05 -2.7420107140427611e-05 -8.6824088583692676e-05 -0.00010104619080243183 -2.2454279713097753e-06 -4.3776770900588735e-05 -4.3676229666819295e-05 7.064503521239337e-05 9.7838077977267757e-05 -9.7027911446490484e-05 8.1912386813948776e-05 6.1248773746919692e-05 -5.6425866314640849e-05 -4.6828233353480398e-05 -8.9361533894579629e-05 -6.3506894620798135e-06 6.9658172243902493e-05 -3.4560584877970106e-05 -8.7105977297408799e-05 -0.00014388411673866598 -3.8871339198567889e-05 9.8395921080554963e-06 -1.5557467784182186e-05 9.3555984737662393e-06 -9.736046345798945e-05 -7.8890819351450428e-05 -0.00010397840234113622 8.5572536971549379e-06 -6.2601010298029931e-05 3.5272143043544488e-05 -3.9382134557392731e-05 -1.1785822825547982e-05 -9.2310375388082044e-05 -0.00015272050293016861 -5.8889419592684299e-05 -1.1973362158641159e-05 1.8248235136063295e-05 -4.9616793946792771e-05 -3.2608868247428974e-05 -4.9011134495444942e-05 -5.8596624526254529e-05 -3.4029786119381812e-05 -4.4326333146643378e-05 -9.1867545114491123e-05 -0.00015998820671479449 -4.0955509396902443e-05 7.4120582318064863e-05 5.0223424659397772e-05 -2.9130135345267587e-05 8.2267191994174482e-05 8.477748635421457e-07 -3.0317234721294675e-05 6.4545515933529243e-05 0.00011226738737220678 -8.718593617459817e-05 -6.439028246973876e-05 -3.2852602028400462e-05 -7.2442192394050163e-05 7.1311812589879182e-06 -4.0005293560145967e-05 -4.2391664457374113e-05 6.1717157860298813e-05 -5.763066449264132e-05 -1.8710648938690668e-05 -1.0953613180692238e-05 3.0746457410155007e-05 6.0049525009744941e-05 0.0001086433278220132 6.3539818400275611e-05 4.8150286214478094e-06 -1.3793934678599392e-05 3.5144412802979348e-05 -4.0035710849253164e-05 -7.0767267377672122e-05 -6.100613752411943e-05 -6.6187395073711913e-05 9.8968768172146612e-06 3.7013695810026804e-05 -2.5922675568251572e-05 -6.8645562697532223e-06 -4.3098084692466026e-05 -2.5732307224406929e-05 -4.1755947827669266e-05 -1.4156208897483924e-05 -8.4767811523475504e-06 -1.9931917926931943e-05 0.00014811718427356076 -4.1570776478399614e-05 -3.755691570301407e-05 1.6740329173742415e-06 0.0001139005056748554 0.00011462716381673943 5.9509973731691757e-05 2.7626041369764598e-06 1.2155394216848844e-06 6.1355085081420124e-05 2.0544833811775645e-06 -4.3248285619197669e-05 -3.4600534305014879e-05 -5.5192455461011594e-05 -3.5558934922097843e-05 -4.9255161315018325e-05 -1.930379722459713e-05 -1.1156059901292707e-05 4.326853421546175e-05 8.1295033662032146e-05 -2.4433965970401244e-06 -4.9271849406667164e-05 9.8608089921141742e-06 4.5482628235035455e-05 -1.9875904961441865e-05 -2.8917559194960351e-05 -5.0859258847613803e-06 -2.8661909687673418e-05 -3.6719889273874751e-06 8.1573449886141293e-06 -5.0952330022000365e-05 -1.1445568750225447e-05 2.281298595046481e-05 -3.118276562943166e-05 4.8639204039155424e-05 3.2136101984194302e-05 -4.8006727056650522e-06 -7.1987353059709371e-05 -1.2972374815509857e-05 -5.6548291274958378e-06 0.0001638062953246616 0.00014435736444098532 6.5509027267485198e-05 8.5735062239779931e-06 -4.1847241589027667e-05 -5.3537867197543639e-05 -9.7347098676727503e-05 -7.9101796784544973e-05 -3.0777515209967944e-05 -0.00010365896827286146 -0.00010762229948148441 -0.00012740430494723794 -0.00013502480443802726 -2.8422900744267158e-05 -3.869843385944883e-05 3.7511656903072791e-05 3.3366885669757211e-05 4.0745995086741844e-05 -3.112310407469036e-06 6.7144315131768892e-06 3.0404277935372358e-05 6.0460644380299588e-05 3.2209011620557429e-06 -2.3196462631790149e-08 1.0699019825348259e-05 -0.00012811916436339643 -0.0001592377186880587 -0.00015508778257092862 -0.00012720642457681957 -1.5593590444712814e-05 -4.5948573213736013e-05 -2.9484032983840246e-05 -3.3922954004330535e-05 -4.1345411470585101e-05 -3.8895474424322066e-05 -3.8482703278220804e-05 6.4777615240019812e-05 0.00031544808195955657 -4.5040010030965359e-05 2.3985423038280535e-05 -3.6669587712562235e-06 -2.9053632449490075e-05 3.7194230213340087e-05 -2.2770833241708135e-05 5.4851138327706352e-05 2.2458093850652124e-06 -3.0063358024991042e-05 4.6650873278251438e-06 4.0527448658018994e-06 -2.1704695097958136e-05 4.6688220331404893e-05 -4.0777312537524106e-05 -2.5635323762487043e-05 -5.8045534729935235e-05 -5.5055477258339654e-05 -2.3639160640698479e-05 -1.3135862951559225e-05 -4.6625648699023299e-05 -3.677302512272677e-05 -3.9651223566709603e-05 -1.1727275183400702e-05 9.1300750856833195e-06 2.8127900222667756e-05 1.7305611200492139e-06 9.567485562740483e-05 4.7033969060380695e-05 -1.4624397903107572e-06 2.2866490533605998e-05 2.6936402304630555e-07 -3.767233151479206e-05 -8.0072596086691768e-06 -5.993326131647006e-06 -8.7511511405039731e-06 3.9921569552590908e-05 3.0173291794494475e-06 5.8474598986129125e-06 1.5982909298958934e-05 -3.1056728647226766e-05 1.4239180065633557e-05 6.8746766040000756e-05 0.00012407377621737991 -3.719917960154572e-05 -5.5300985685837085e-05 -6.4893932109141503e-05 -2.9438627339953441e-05 -2.9363378546671707e-05 -3.6493304217087236e-05 -1.7971788974714535e-05 -4.136759057861341e-05 -6.399002667111138e-06 -1.3684841140204716e-05 -9.16705336700265e-05 -0.00012042754891488375 -0.00010109986705283369 -8.0144340353258337e-05 -2.7924865130599455e-05 -5.6275393700275234e-05 7.2851318122851491e-06 -7.5624241709267015e-07 -3.6605668548910723e-05 -3.1429887775943498e-05 -3.0216192635194265e-05 -2.7146301755335374e-05 -7.4958094943651068e-05 -5.7542259921894716e-05 -4.0892064030078386e-05 1.0151442413833776e-05 -3.0218580347108926e-05 -5.9834084621770457e-06 -6.3922782779404571e-05 -3.4084758149573782e-05 -4.0669553564507722e-05 3.2068569565770651e-05 6.4294162721210101e-05 -4.035107169571218e-05 5.67923867516619e-06 -2.2121396786433517e-06 3.3614814767612272e-05 3.4327144504975489e-05 6.8227202974821544e-05 3.4642449802998326e-06 7.1576453305950347e-05 -2.671600899155184e-06 -3.280244064382239e-05 -1.3611995324443703e-05 -2.3074537070849697e-05 -2.2047623760411419e-05 -1.6926705214698927e-05 5.4858151973166536e-05 -3.7983670771907696e-05 -4.5604199553296094e-05 -5.262943186248547e-05 -8.3933301941451887e-05 -3.921474869022991e-05 2.7654900634906663e-05 8.5776349615918328e-06 5.1573137178802242e-06 5.5849231139243121e-05 -3.6546355561019577e-05 -5.8897122880677126e-05 1.6097146646778588e-05 1.8892458920644224e-05 -1.4801533188403852e-05 -3.1503530124990644e-05 -2.3693801579967121e-05 -1.3368372772434799e-05 8.723580362628245e-05 -2.2481144791245376e-05 -6.3994278213782549e-05 -4.2745348164892673e-05 7.0263575622072022e-05 -2.7765390970035551e-05 -5.754559752200409e-05 -7.336485394878912e-05 5.4421219543548515e-06 
</DataArray>
</CellData>
</Piece>
</UnstructuredGrid>
</VTKFile>
